96
	Energy:      97.2950562
C        -12.81323       -0.78154       -0.50584
C         12.82656        0.41730        0.62810
C        -14.19397       -0.07154       -0.43614
C         13.89560       -0.57489        1.16284
C        -14.09627        1.41248       -0.74442
C         14.23480       -1.65366        0.14964
C        -11.71204        0.05138        0.19887
C         11.65859       -0.32616       -0.06868
C        -13.18413        2.09767        0.26282
C         12.99143       -2.46257       -0.19151
C        -11.91344        1.33801        0.58069
C         11.75052       -1.62880       -0.44069
C        -12.42537       -0.99288       -1.98582
C        -13.01760       -2.17257        0.14193
C         13.50086        1.38475       -0.37326
C         12.34548        1.23703        1.84781
C        -10.45175       -0.64898        0.46446
C         10.47570        0.49294       -0.35408
C        -10.93607        2.16418        1.38415
C         10.66865       -2.40195       -1.15942
C         -9.23204       -0.23063        0.07733
C          9.20750        0.19710       -0.01507
C         -7.96035       -0.91867        0.34019
C          8.01968        1.00673       -0.32264
C         -8.05812       -2.33495        0.86012
C          8.26659        2.39432       -0.86689
C         -6.79871       -0.26922        0.09759
C          6.79488        0.47659       -0.10667
C         -5.45610       -0.78959        0.29542
C          5.50916        1.11150       -0.34656
C         -4.32537       -0.09514        0.06885
C          4.32732        0.49991       -0.14774
C         -2.95515       -0.60686        0.24884
C          2.99472        1.09019       -0.35440
C         -2.82130       -2.03108        0.73945
C          2.94137        2.52103       -0.83282
C         -1.90533        0.19847       -0.03075
C          1.90526        0.33247       -0.10073
C         -0.49507       -0.14051        0.07019
C          0.50597        0.71075       -0.21716
H        -14.90284       -0.54110       -1.13014
H        -14.62585       -0.19015        0.56778
H         14.81188       -0.03881        1.44189
H         13.53428       -1.06005        2.08010
H        -15.09224        1.86913       -0.70617
H        -13.72052        1.56939       -1.76183
H         15.00691       -2.31916        0.55280
H         14.65372       -1.20729       -0.75997
H        -12.93314        3.09348       -0.12255
H        -13.73623        2.24798        1.19971
H         13.22307       -3.06780       -1.07647
H         12.77532       -3.16331        0.62486
H        -13.22230       -1.51243       -2.53110
H        -11.51917       -1.60203       -2.08125
H        -12.23673       -0.04366       -2.49853
H        -12.16075       -2.83508       -0.02235
H        -13.89272       -2.67916       -0.28314
H        -13.17791       -2.08739        1.22310
H         12.84154        2.21793       -0.64090
H         13.78124        0.87844       -1.30339
H         14.41000        1.82478        0.05306
H         13.19502        1.69023        2.37326
H         11.81148        0.60387        2.56588
H         11.67616        2.05456        1.55853
H        -10.56013       -1.57810        1.01593
H         10.69710        1.41899       -0.87730
H        -11.46878        2.75524        2.13755
H        -10.39818        2.85440        0.72650
H        -10.20877        1.56089        1.93360
H         10.09186       -2.99239       -0.44016
H         11.10343       -3.09116       -1.89145
H          9.98532       -1.76273       -1.72406
H         -9.16177        0.71095       -0.46664
H          9.02409       -0.73596        0.51674
H         -7.09794       -2.84457        0.95408
H         -8.66274       -2.94871        0.18226
H         -8.51862       -2.34878        1.85410
H          8.87831        2.97449       -0.16649
H          7.35806        2.97475       -1.03583
H          8.78565        2.34349       -1.83046
H         -6.83901        0.75467       -0.27474
H          6.73039       -0.54065        0.28103
H         -5.38208       -1.81088        0.64733
H          5.52299        2.13508       -0.70015
H         -4.40812        0.93304       -0.28201
H          4.33625       -0.53166        0.20419
H         -3.31431       -2.14950        1.71104
H         -3.27583       -2.72540        0.02378
H         -1.79120       -2.36192        0.87970
H          3.43642        3.18387       -0.11421
H          1.92802        2.90548       -0.96351
H          3.43940        2.61910       -1.80405
H         -2.10284        1.21376       -0.37574
H          2.06098       -0.69229        0.23943
H         -0.23777       -1.14351        0.39380
H          0.26675        1.71746       -0.54296
