112
	Energy:       7.6274885
O          2.14419        2.78767        0.12460
C          1.27003        3.76654        0.69566
C         -0.12055        3.74912        0.05479
C         -0.11471        3.98719       -1.46569
O          0.60626        2.98852       -2.18047
H          0.55993        3.22111       -3.12345
O         -0.76392        2.49505        0.37526
C         -2.12314        2.54578        0.39803
C         -2.69356        1.18986        0.73600
C         -4.20915        1.28162        0.89670
C         -4.84930       -0.07030        1.19723
C         -6.36395        0.08623        1.33692
C         -7.04477       -1.24718        1.63302
C         -8.55704       -1.06692        1.76622
C         -9.24326       -2.39077        2.10056
C        -10.72955       -2.21098        2.20462
C        -11.61479       -2.89318        1.46264
C        -13.10067       -2.70362        1.55413
C        -13.68569       -2.31670        0.19535
C        -15.19613       -2.10299        0.28735
C        -15.79012       -1.75284       -1.07665
C        -17.30068       -1.54025       -0.98063
C        -17.90072       -1.19930       -2.34443
C        -19.41089       -0.98885       -2.24669
C        -20.01307       -0.65058       -3.60059
O         -2.78505        3.55090        0.17384
C          3.43789        2.92019        0.51786
C          4.30463        1.92606       -0.21424
C          5.73373        1.98184        0.31453
C          6.65817        1.00620       -0.40600
C          8.06565        1.09903        0.17979
C          9.02892        0.13769       -0.50747
C         10.42269        0.25009        0.10666
C         11.39954       -0.70753       -0.56771
C         12.79081       -0.59259        0.05046
C         13.76652       -1.55175       -0.62573
C         15.16043       -1.44215       -0.01257
C         16.13169       -2.40395       -0.69347
C         17.52894       -2.30004       -0.08539
C         18.49734       -3.26381       -0.76950
C         19.89642       -3.16419       -0.16539
C         20.86101       -4.12219       -0.84468
O          3.83929        3.74534        1.32879
H          1.17472        3.54759        1.76618
H          1.70174        4.76686        0.56723
H         -0.67841        4.56697        0.53018
H         -1.13714        3.98065       -1.85575
H          0.33549        4.95948       -1.69023
H         -2.43828        0.49585       -0.07173
H         -2.24136        0.83984        1.67048
H         -4.44699        1.98701        1.70353
H         -4.65006        1.69500       -0.01947
H         -4.62193       -0.77674        0.39003
H         -4.43042       -0.48416        2.12215
H         -6.58551        0.79744        2.14241
H         -6.77559        0.51024        0.41251
H         -6.82837       -1.95908        0.82739
H         -6.63930       -1.67045        2.55970
H         -8.77103       -0.33006        2.55123
H         -8.96184       -0.66183        0.82973
H         -8.99438       -3.13785        1.33710
H         -8.86894       -2.77172        3.05787
H        -11.08242       -1.48020        2.92993
H        -11.26191       -3.63261        0.74626
H        -13.55150       -3.64133        1.89967
H        -13.34976       -1.93488        2.29583
H        -13.20702       -1.39916       -0.17010
H        -13.47062       -3.10413       -0.53835
H        -15.67349       -3.01172        0.67366
H        -15.40977       -1.29698        0.99994
H        -15.31353       -0.84422       -1.46430
H        -15.57634       -2.55931       -1.78870
H        -17.77495       -2.44745       -0.58677
H        -17.51321       -0.73050       -0.27199
H        -17.42697       -0.29182       -2.73825
H        -17.68701       -2.00893       -3.05291
H        -19.88872       -1.89492       -1.85620
H        -19.62909       -0.17761       -1.54242
H        -19.57794        0.26922       -4.00421
H        -19.83920       -1.45763       -4.31945
H        -21.09366       -0.50392       -3.50861
H          3.89105        0.92232       -0.06860
H          4.28669        2.17275       -1.28148
H          6.12634        3.00112        0.20556
H          5.73254        1.76068        1.38964
H          6.27713       -0.01660       -0.30178
H          6.68394        1.23843       -1.47743
H          8.43836        2.12589        0.07759
H          8.03036        0.87597        1.25345
H          8.66125       -0.89056       -0.40692
H          9.07634        0.36348       -1.57956
H         10.78764        1.27982        0.00701
H         10.37152        0.02876        1.17992
H         11.03488       -1.73703       -0.46743
H         11.45241       -0.48516       -1.64039
H         13.15550        0.43708       -0.04925
H         12.73789       -0.81455        1.12336
H         13.39959       -2.58057       -0.52582
H         13.81706       -1.32910       -1.69857
H         15.52764       -0.41348       -0.11264
H         15.11019       -1.66529        1.06014
H         15.76173       -3.43173       -0.59367
H         16.17898       -2.18023       -1.76626
H         17.89845       -1.27222       -0.18556
H         17.48115       -2.52399        0.98724
H         18.12523       -4.29084       -0.66984
H         18.54238       -3.03947       -1.84227
H         20.27379       -2.13996       -0.26643
H         19.85656       -3.39156        0.90624
H         21.85677       -4.03667       -0.39911
H         20.52629       -5.15861       -0.73438
H         20.94575       -3.90031       -1.91331
