40
	Energy:    -121.7951178
P         -0.10267        2.55710        0.51044
O          1.17727        2.05469       -0.35835
O         -0.97200        1.19129        0.43749
O         -3.40735       -0.26343        0.30775
O          0.37427        2.72789        1.92719
O         -0.79328        3.63049       -0.27617
O         -2.10757       -2.81766        0.00698
O         -4.65402        0.71882       -1.35655
O         -0.12834       -3.82018        0.62124
N          3.89400       -0.53937       -0.29629
C          3.12183        0.74749       -0.66208
C          4.41248       -0.45956        1.13294
C          5.07158       -0.65468       -1.25276
C          3.00244       -1.76822       -0.45340
C          1.95473        1.05231        0.25975
C         -2.32561       -0.47382       -0.62811
C         -1.54185        0.83284       -0.81197
C         -1.40974       -1.56048       -0.05007
C         -4.47057        0.41338       -0.18736
C         -1.33300       -3.85332        0.41313
H          2.78234        0.63508       -1.69962
H          3.83922        1.57790       -0.64353
H          5.05132       -1.32899        1.31407
H          3.56396       -0.47492        1.82213
H          4.98545        0.46574        1.24246
H          5.70747        0.22747       -1.13104
H          5.63158       -1.56208       -1.00871
H          4.68460       -0.71001       -2.27488
H          2.54422       -1.73819       -1.44632
H          3.62709       -2.66011       -0.34832
H          2.23833       -1.76259        0.32729
H          2.32205        1.40173        1.22874
H          1.32697        0.17274        0.41427
H         -2.73457       -0.82570       -1.58362
H         -0.74124        0.68733       -1.54544
H         -2.19267        1.64053       -1.15578
H         -0.52458       -1.67277       -0.68854
H         -1.10024       -1.30654        0.97062
H         -5.17088        0.63382        0.63155
H         -1.96033       -4.75333        0.51504
