140
 generated by VMD
 P        -1.707400        6.191610       -1.730590
 O        -1.139950        7.446280       -2.337710
 O        -2.378790        5.108890       -2.525010
 O        -0.604340        5.571720       -0.719620
 C         0.311590        4.612230       -1.240930
 C         0.296170        3.438970       -0.319410
 C         1.396050        2.928640        0.550280
 O         2.637920        2.622500       -0.094220
 C         3.406470        1.837990        0.730440
 C         4.794780        1.571040        0.183580
 C         5.540930        0.645070        1.163100
 C         7.013130        0.407710        0.832190
 C         7.660790       -0.493120        1.897900
 C         9.149920       -0.707020        1.629250
 C         9.804060       -1.617380        2.675830
 C        11.307480       -1.748140        2.407570
 C        11.954530       -2.784370        3.284450
 C        12.670330       -3.851990        2.890940
 C        12.991180       -4.265560        1.481540
 C        14.500340       -4.394820        1.257700
 C        14.809620       -4.615550       -0.224640
 C        16.305059       -4.815620       -0.466230
 C        16.598480       -5.015870       -1.954000
 C        18.089090       -5.248640       -2.198930
 C        18.381741       -5.462610       -3.683390
 C        19.862640       -5.704970       -3.926060
 O         3.037760        1.428260        1.828380
 O        -0.975260        3.186760        0.206420
 C        -1.496230        2.055150       -0.347860
 C        -2.947720        2.012240        0.022710
 C        -3.463860        0.600990       -0.134180
 C        -4.954020        0.561810        0.124710
 C        -5.451440       -0.853820       -0.083730
 C        -6.951680       -0.904780        0.110270
 C        -7.442970       -2.321840       -0.110230
 C        -8.945540       -2.374720        0.081250
 C        -9.445450       -3.790970       -0.132470
 C       -10.949940       -3.839190        0.064230
 C       -11.460530       -5.254190       -0.145470
 C       -12.967150       -5.300920        0.052630
 C       -13.484820       -6.716130       -0.156040
 C       -14.993670       -6.764850        0.041860
 C       -15.517520       -8.180700       -0.166200
 C       -17.028820       -8.230800        0.031690
 C       -17.560301       -9.645580       -0.175130
 C       -19.065201       -9.698630        0.021290
 O        -0.896510        1.213310       -1.000980
 O        -2.796110        6.673220       -0.622590
 C        -3.748940        7.619790       -1.071710
 C        -4.453670        8.233180        0.139410
 N        -3.533810        9.047330        1.100970
 C        -2.997290       10.289060        0.409000
 C        -4.353200        9.450580        2.313710
 C        -2.347870        8.200570        1.572670
 H         0.009050        4.279250       -2.240140
 H         1.301390        5.066100       -1.310780
 H         1.582450        3.646990        1.355480
 H         1.003140        2.004670        0.998780
 H         4.719870        1.098570       -0.800570
 H         5.322080        2.526500        0.095770
 H         5.483750        1.070560        2.173970
 H         5.020710       -0.321050        1.205210
 H         7.104140       -0.060520       -0.154400
 H         7.541840        1.367170        0.792970
 H         7.533860       -0.040730        2.889560
 H         7.147490       -1.462540        1.920830
 H         9.277590       -1.152040        0.635040
 H         9.661220        0.262850        1.618910
 H         9.644800       -1.207330        3.681350
 H         9.326980       -2.605260        2.652060
 H        11.458890       -1.966160        1.347570
 H        11.794370       -0.784090        2.597920
 H        11.828720       -2.630970        4.356210
 H        13.066820       -4.506590        3.667200
 H        12.510770       -5.231800        1.286140
 H        12.582760       -3.563890        0.750100
 H        15.015040       -3.490470        1.605830
 H        14.889210       -5.234470        1.847620
 H        14.258170       -5.490190       -0.590320
 H        14.460060       -3.749790       -0.800950
 H        16.859831       -3.945200       -0.095480
 H        16.654301       -5.687950        0.099250
 H        16.026199       -5.872930       -2.329560
 H        16.266130       -4.134500       -2.516200
 H        18.660810       -4.387860       -1.831290
 H        18.421761       -6.124930       -1.629340
 H        17.810810       -6.321030       -4.056160
 H        18.060780       -4.585460       -4.257250
 H        20.052429       -5.857430       -4.992990
 H        20.459320       -4.849840       -3.592870
 H        20.206989       -6.594510       -3.388870
 H        -3.066790        2.328810        1.066410
 H        -3.487890        2.711920       -0.623490
 H        -3.254840        0.232250       -1.146080
 H        -2.939340       -0.067400        0.561100
 H        -5.172300        0.895260        1.146600
 H        -5.470200        1.246660       -0.559380
 H        -5.195310       -1.194910       -1.094750
 H        -4.955520       -1.531880        0.621850
 H        -7.210240       -0.568040        1.121560
 H        -7.443080       -0.223540       -0.595440
 H        -7.181140       -2.655770       -1.122000
 H        -6.949080       -3.002670        0.594020
 H        -9.203840       -2.034300        1.091560
 H        -9.435020       -1.693580       -0.625820
 H        -9.187480       -4.129150       -1.143630
 H        -8.952360       -4.470930        0.573120
 H       -11.203170       -3.495990        1.074950
 H       -11.438610       -3.156360       -0.641730
 H       -11.205000       -5.595020       -1.156280
 H       -10.968860       -5.934630        0.560580
 H       -13.218470       -4.956560        1.063380
 H       -13.454670       -4.617030       -0.653040
 H       -13.229900       -7.057640       -1.166750
 H       -12.993800       -7.397120        0.549870
 H       -15.244390       -6.419970        1.052530
 H       -15.480440       -6.080430       -0.663750
 H       -15.263230       -8.522770       -1.176860
 H       -15.027220       -8.862320        0.539560
 H       -17.278700       -7.884900        1.042220
 H       -17.514629       -7.545430       -0.673660
 H       -17.313629       -9.992030       -1.185490
 H       -17.077660      -10.331560        0.530690
 H       -19.338181       -9.384180        1.033680
 H       -19.575390       -9.042870       -0.691480
 H       -19.430861      -10.718420       -0.130190
 H        -3.286210        8.402120       -1.678880
 H        -4.487090        7.105880       -1.696930
 H        -5.245900        8.919490       -0.183300
 H        -4.900470        7.440890        0.751370
 H        -3.846810       10.895150        0.080360
 H        -2.395020       10.848980        1.131830
 H        -2.378810        9.994390       -0.441150
 H        -4.716090        8.543890        2.807650
 H        -3.715540       10.021760        2.995630
 H        -5.193590       10.066160        1.979220
 H        -1.617250        8.118740        0.765360
 H        -1.876680        8.717150        2.414670
 H        -2.724310        7.226800        1.898620
 H         0.560615        2.633047       -1.063802
