167
	Energy:       5.1932324
O          1.43991        1.75523       -1.22539
C          0.80417        1.08906       -0.22155
C          0.36679       -0.27413       -0.70303
C         -0.44431       -0.97059        0.38535
C         -0.87117       -2.38199       -0.00261
C         -1.64244       -3.01905        1.15362
C         -2.04540       -4.45618        0.84393
C         -2.82067       -5.06454        2.01330
C         -3.15531       -6.53070        1.74313
C         -4.09487       -7.06908        2.78415
C         -5.31949       -7.58323        2.58468
C         -6.03447       -7.74565        1.27351
C         -6.33713       -9.21792        0.99146
C         -6.86959       -9.40211       -0.42969
C         -7.25070      -10.85698       -0.69667
C         -7.76825      -11.03635       -2.12371
C         -8.18623      -12.48348       -2.38097
C         -8.71886      -12.66293       -3.80145
C         -9.14586      -14.09960       -4.05402
O          0.61507        1.52551        0.90480
C          1.83738        3.10941       -0.90664
C          3.12028        3.42635       -1.67090
O          4.20107        2.62256       -1.17620
C          5.38698        2.93251       -1.77159
C          6.48530        2.04110       -1.24929
C          7.80728        2.40450       -1.91851
C          8.96020        1.52073       -1.45749
C         10.24553        1.92812       -2.17762
C         11.41973        1.04358       -1.77357
C         12.69938        1.47448       -2.49095
C         13.85822        0.53963       -2.14594
C         15.15821        1.07148       -2.67838
C         16.25967        1.37980       -1.97430
C         16.45329        1.26020       -0.48929
C         17.59708        0.30011       -0.15840
C         17.65412        0.01803        1.34320
C         18.83909       -0.87863        1.69732
C         18.87901       -1.16898        3.19766
C         20.08444       -2.03529        3.56061
C         20.13527       -2.31427        5.06179
C         21.34046       -3.16612        5.42524
O          5.53108        3.80826       -2.61397
C          0.74400        4.07415       -1.36997
O         -0.46867        3.84708       -0.64161
C         -1.47264        4.68905       -1.00789
C         -2.72534        4.37198       -0.22978
C         -3.83817        5.33847       -0.62070
C         -5.13434        5.07674        0.13795
C         -6.19603        6.09037       -0.28788
C         -7.50250        5.89210        0.47272
C         -8.55258        6.90774        0.02127
C         -9.83786        6.76409        0.83540
C        -10.93619        7.61311        0.26130
C        -12.12847        7.19895       -0.19795
C        -12.64788        5.78990       -0.23846
C        -13.93413        5.65342        0.57783
C        -14.34212        4.18588        0.70952
C        -15.66611        4.04075        1.45737
C        -16.05836        2.57012        1.59928
C        -17.40063        2.42355        2.31480
C        -17.80274        0.95547        2.44468
C        -19.14332        0.80967        3.14595
O         -1.36755        5.56550       -1.85440
H         -0.24507       -0.15194       -1.60355
H          1.25915       -0.85983       -0.94764
H          0.14925       -1.01599        1.30753
H         -1.33399       -0.37013        0.61591
H         -1.49934       -2.35166       -0.90083
H          0.01205       -2.98667       -0.24025
H         -1.02270       -3.00397        2.05890
H         -2.53799       -2.42268        1.36842
H         -2.66717       -4.47750       -0.05942
H         -1.15076       -5.05563        0.63819
H         -2.22700       -4.98817        2.93344
H         -3.74013       -4.48785        2.17706
H         -3.56337       -6.62710        0.73397
H         -2.23479       -7.12614        1.76130
H         -3.72404       -7.03249        3.80840
H         -5.87173       -7.92466        3.45999
H         -6.97231       -7.17883        1.31490
H         -5.46236       -7.32777        0.44123
H         -5.43075       -9.82327        1.11974
H         -7.07467       -9.58559        1.71612
H         -7.74321       -8.75754       -0.58416
H         -6.10357       -9.08641       -1.14900
H         -6.37923      -11.50351       -0.53673
H         -8.02185      -11.17023        0.01751
H         -8.62398      -10.37095       -2.29099
H         -6.98787      -10.74503       -2.83744
H         -7.32806      -13.14785       -2.22225
H         -8.95893      -12.77571       -1.65943
H         -9.57541      -11.99860       -3.96513
H         -7.94696      -12.38241       -4.52749
H         -9.52559      -14.20865       -5.07451
H         -8.30277      -14.78651       -3.92894
H         -9.93918      -14.39961       -3.36186
H          2.02561        3.20929        0.16906
H          2.98542        3.20757       -2.73744
H          3.37174        4.48573       -1.53601
H          6.56155        2.17400       -0.16489
H          6.22402        1.00060       -1.47030
H          7.69913        2.32038       -3.00772
H          8.04568        3.45528       -1.70863
H          9.09328        1.61545       -0.37321
H          8.73107        0.46950       -1.66883
H         10.09533        1.86127       -3.26235
H         10.47697        2.97606       -1.94955
H         11.56957        1.10557       -0.68867
H         11.19363       -0.00253       -2.01158
H         12.53647        1.47170       -3.57641
H         12.94461        2.50578       -2.20640
H         13.88975        0.39003       -1.06384
H         13.67687       -0.44705       -2.58849
H         15.19409        1.21412       -3.75835
H         17.11870        1.76281       -2.52484
H         16.68009        2.25443       -0.08604
H         15.54342        0.92614        0.01580
H         17.46761       -0.64560       -0.69991
H         18.54811        0.73426       -0.49207
H         17.72895        0.96295        1.89465
H         16.72153       -0.46690        1.65779
H         18.76929       -1.82150        1.14131
H         19.77209       -0.39023        1.39108
H         18.92383       -0.22474        3.75392
H         17.95498       -1.67779        3.49855
H         20.03492       -2.98315        3.01095
H         21.00658       -1.52921        3.24976
H         20.18233       -1.36914        5.61524
H         19.22043       -2.82967        5.37661
H         21.30647       -4.13221        4.91162
H         22.27287       -2.66301        5.14968
H         21.36104       -3.35398        6.50310
H          1.07136        5.10790       -1.20538
H          0.54166        3.91491       -2.43668
H         -3.02370        3.34189       -0.45299
H         -2.50608        4.46185        0.83960
H         -3.50747        6.36811       -0.43254
H         -4.02591        5.26274       -1.69958
H         -5.48725        4.05851       -0.06505
H         -4.95666        5.15261        1.21723
H         -5.82312        7.10702       -0.11191
H         -6.37912        5.99772       -1.36570
H         -7.87755        4.87579        0.30027
H         -7.32335        5.99473        1.54949
H         -8.15838        7.92578        0.13531
H         -8.76063        6.76274       -1.04665
H        -10.11807        5.70886        0.88276
H         -9.65458        7.08122        1.86888
H        -10.72434        8.68153        0.22168
H        -12.80734        7.95550       -0.59106
H        -12.84563        5.52086       -1.28298
H        -11.91002        5.07175        0.12812
H        -13.79608        6.08229        1.57851
H        -14.73811        6.22125        0.09256
H        -14.42973        3.73530       -0.28642
H        -13.55739        3.63686        1.24487
H        -15.58211        4.49723        2.45116
H        -16.45262        4.58199        0.91768
H        -16.11832        2.10798        0.60638
H        -15.28153        2.03453        2.15870
H        -17.33783        2.87813        3.31101
H        -18.17371        2.96825        1.75916
H        -17.86432        0.49647        1.45105
H        -17.03860        0.40787        3.00852
H        -19.10521        1.23144        4.15538
H        -19.93422        1.32223        2.58898
H        -19.41538       -0.24706        3.22837
