173
	Energy:     -24.9730288
O         -1.27563        1.51988        0.75841
C         -0.57796        0.58681        0.05299
C         -0.37080       -0.64873        0.89611
C          0.50642       -1.64737        0.14773
C          0.72031       -2.94404        0.92101
C          1.58774       -3.89302        0.09533
C          1.82036       -5.21890        0.80976
C          2.68472       -6.14076       -0.04808
C          2.92588       -7.47325        0.65248
C          3.79065       -8.39298       -0.20523
C          4.02901       -9.72370        0.50200
C          4.89372      -10.65021       -0.34778
C          5.12810      -11.97885        0.36613
C          5.99285      -12.91043       -0.47904
C          6.22579      -14.23865        0.23732
C          7.09083      -15.17362       -0.60548
C          7.32311      -16.50210        0.11232
C          8.18780      -17.44011       -0.72716
C          8.42025      -18.76239       -0.01514
O         -0.17776        0.72459       -1.09520
C         -1.47182        2.78333        0.08087
C         -2.80983        3.36763        0.53164
O         -3.89346        2.55117        0.06156
C         -5.11177        3.08097        0.36809
C         -6.21684        2.17373       -0.11343
C         -7.57619        2.78077        0.22394
C         -8.73858        1.90074       -0.22389
C        -10.06574        2.56361        0.14462
C        -11.25919        1.71569       -0.28339
C        -12.57099        2.40070        0.09667
C        -13.77227        1.56059       -0.32724
C        -15.08308        2.24573        0.05264
C        -16.28167        1.40160       -0.37358
C        -17.59595        2.08113        0.00332
C        -18.79133        1.23282       -0.42518
C        -20.10849        1.90866       -0.05017
C        -21.30259        1.05839       -0.47974
C        -22.62220        1.73168       -0.10604
C        -23.81558        0.87973       -0.53650
C        -25.13700        1.54952       -0.16460
C        -26.32532        0.70378       -0.59188
O         -5.27749        4.14191        0.95552
C         -0.35467        3.74860        0.48742
O          0.91899        3.26728        0.03863
C          1.94732        4.09846        0.36071
C          3.25641        3.51336       -0.10893
C          4.40638        4.45588        0.23282
C          5.76023        3.91347       -0.21424
C          6.86352        4.90495        0.15360
C          8.23998        4.40719       -0.27518
C          9.31874        5.42029        0.10470
C         10.70236        4.93637       -0.31869
C         11.77794        5.95127        0.06219
C         13.16075        5.46399       -0.36285
C         14.24092        6.47455        0.01528
C         15.62176        5.98211       -0.41211
C         16.70604        6.98957       -0.03606
C         18.08606        6.49455       -0.46464
C         19.17361        7.50005       -0.09000
C         20.55338        7.00314       -0.51950
C         21.64368        8.00575       -0.14669
C         23.01692        7.51347       -0.57300
O          1.81937        5.16037        0.95583
H          0.11367       -0.35827        1.83486
H         -1.34906       -1.08981        1.11428
H          0.04897       -1.87840       -0.82294
H          1.47920       -1.18621       -0.06760
H          1.20478       -2.73356        1.88180
H         -0.24629       -3.41456        1.13677
H          1.10550       -4.08074       -0.87226
H          2.55328       -3.41637       -0.11537
H          2.31148       -5.04001        1.77370
H          0.85806       -5.70163        1.01837
H          2.19337       -6.31542       -1.01332
H          3.64571       -5.65545       -0.25899
H          3.41732       -7.29853        1.61727
H          1.96496       -7.95906        0.86110
H          3.29970       -8.56933       -1.17014
H          4.75186       -7.90798       -0.41506
H          4.51833       -9.54499        1.46728
H          3.06674      -10.20662        0.71169
H          4.40449      -10.83007       -1.31284
H          5.85633      -10.16803       -0.55730
H          5.61597      -11.79708        1.33160
H          4.16453      -12.45903        0.57621
H          5.50447      -13.09185       -1.44421
H          6.95618      -12.42976       -0.68866
H          6.71299      -14.05544        1.20283
H          5.26153      -14.71740        0.44742
H          6.60296      -15.35587       -1.57077
H          8.05458      -14.69384       -0.81526
H          7.80957      -16.31779        1.07800
H          6.35830      -16.97965        0.32268
H          7.70324      -17.62991       -1.69198
H          9.15472      -16.96796       -0.93655
H          9.04085      -19.42039       -0.63098
H          8.93150      -18.60790        0.94043
H          7.47222      -19.27341        0.18094
H         -1.49211        2.63441       -1.00539
H         -2.85322        3.40250        1.62727
H         -2.92134        4.37900        0.12144
H         -6.11989        2.04678       -1.19693
H         -6.10713        1.20076        0.37741
H         -7.64296        2.94738        1.30693
H         -7.66224        3.76749       -0.24938
H         -8.68976        1.74114       -1.30755
H         -8.66776        0.91726        0.25573
H        -10.10440        2.72863        1.22863
H        -10.12763        3.54976       -0.33228
H        -11.22734        1.55282       -1.36738
H        -11.20386        0.73078        0.19567
H        -12.60067        2.56535        1.18083
H        -12.62409        3.38689       -0.38083
H        -13.74274        1.39674       -1.41131
H        -13.71945        0.57503        0.15109
H        -15.11366        2.40976        1.13675
H        -15.13687        3.23148       -0.42541
H        -16.24933        1.23758       -1.45763
H        -16.22617        0.41595        0.10445
H        -17.62902        2.24482        1.08735
H        -17.65217        3.06658       -0.47494
H        -18.75663        1.06890       -1.50919
H        -18.73349        0.24727        0.05282
H        -20.14291        2.07228        1.03382
H        -20.16605        2.89403       -0.52842
H        -21.26645        0.89459       -1.56370
H        -21.24331        0.07296       -0.00169
H        -22.65767        1.89530        0.97793
H        -22.68081        2.71702       -0.58425
H        -23.77803        0.71582       -1.62041
H        -23.75489       -0.10571       -0.05861
H        -25.18059        1.71176        0.91866
H        -25.20373        2.53341       -0.64335
H        -27.26151        1.19939       -0.31731
H        -26.32678        0.54954       -1.67565
H        -26.30351       -0.27654       -0.10521
H         -0.54038        4.73381        0.04281
H         -0.32460        3.83543        1.58088
H          3.40265        2.54680        0.38546
H          3.20370        3.36146       -1.19233
H          4.23024        5.43128       -0.23882
H          4.42482        4.63167        1.31622
H          5.95223        2.94678        0.26638
H          5.75582        3.74544       -1.29774
H          6.65998        5.87209       -0.32282
H          6.85732        5.07393        1.23766
H          8.45130        3.44379        0.20416
H          8.25275        4.24157       -1.35914
H          9.10375        6.38427       -0.37277
H          9.30266        5.58697        1.18886
H         10.91810        3.97333        0.15972
H         10.71891        4.77088       -1.40277
H         11.56276        6.91476       -0.41589
H         11.76194        6.11739        1.14630
H         13.37425        4.50017        0.11523
H         13.17509        5.29758       -1.44691
H         14.02820        7.43840       -0.46303
H         14.22737        6.64092        1.09932
H         15.83279        5.01770        0.06593
H         15.63368        5.81506       -1.49613
H         16.49483        7.95373       -0.51438
H         16.69396        7.15625        1.04794
H         18.29553        5.52984        0.01346
H         18.09643        6.32718       -1.54861
H         18.96349        8.46447       -0.56828
H         19.16260        7.66703        0.99397
H         20.76146        6.03804       -0.04156
H         20.56240        6.83529       -1.60343
H         21.44178        8.97098       -0.62549
H         21.64088        8.17361        0.93660
H         23.26103        6.56381       -0.08626
H         23.06087        7.36548       -1.65676
H         23.78370        8.24405       -0.29780
