51 

O  10.0552   -0.4067   -0.1201    
C   0.0337   -0.3800    0.1929    
C  -1.2301    0.4825    0.1477    
C   1.3286    0.4372    0.1355    
C  -2.5251   -0.3373    0.1320    
C   2.5933   -0.4239    0.1026    
C  -3.8256    0.4694    0.0610    
C   3.8517    0.4435    0.0222    
C  -5.1140   -0.3550   -0.0228    
C   5.1188   -0.4135    0.0221    
C  -6.4176    0.4492   -0.0314    
C   6.3759    0.4510   -0.0915    
C  -7.6724   -0.4264   -0.0347    
C   7.6443   -0.4067   -0.0616    
C  -8.9397    0.4235   -0.1357    
C   8.9118    0.4353   -0.1404    
C -10.1889   -0.4420   -0.1779    
H   0.0279   -0.9852    1.1077    
H   0.0178   -1.0812   -0.6507    
H  -1.2407    1.1557    1.0134    
H  -1.2022    1.1170   -0.7466    
H   1.3666    1.1075    1.0031    
H   1.3073    1.0757   -0.7566    
H  -2.5540   -0.9694    1.0285    
H  -2.4949   -1.0208   -0.7262    
H   2.6312   -1.0498    1.0023    
H   2.5554   -1.0992   -0.7607    
H  -3.8795    1.1202    0.9428    
H  -3.7808    1.1341   -0.8108    
H   3.8189    1.0527   -0.8893    
H   3.8776    1.1352    0.8730    
H  -5.0754   -0.9775   -0.9255    
H  -5.1364   -1.0471    0.8285    
H   5.1604   -1.0053    0.9447    
H   5.0849   -1.1215   -0.8150    
H  -6.4224    1.1009   -0.9138    
H  -6.4398    1.1061    0.8469    
H   6.4026    1.1710    0.7354    
H   6.3450    1.0283   -1.0234    
H  -7.7014   -1.0316    0.8793    
H  -7.6291   -1.1216   -0.8818    
H   7.6709   -1.0105    0.8542    
H   7.6341   -1.1240   -0.8918    
H  -9.0004    1.1041    0.7216    
H  -8.9030    1.0425   -1.0397    
H   8.9295    1.0195   -1.0661    
H   8.9724    1.1218    0.7103    
H -10.1741   -1.1104   -1.0446    
H -10.2733   -1.0531    0.7263    
H -11.0828    0.1857   -0.2484    
H  10.8359    0.1705   -0.1721    
