57

C  -4.8547  -10.1720    0.0007     
C  -3.5576   -9.3565    0.0003     
C  -3.7946   -7.8408    0.0006     
C  -2.5010   -7.0163    0.0002     
C  -2.7378   -5.5005    0.0005     
C  -1.4432   -4.6772    0.0002     
C  -1.6789   -3.1612    0.0004     
C  -0.3837   -2.3388    0.0001     
C  -0.6185   -0.8227    0.0003     
C   0.6769   -0.0007    0.0001     
C   0.4422    1.5154    0.0003     
C   1.7375    2.3376    0.0001     
C   1.5020    3.8535    0.0004     
C   2.7968    4.6764    0.0002     
C   2.5594    6.1919    0.0005     
C   3.8541    7.0152    0.0004     
C   3.6081    8.5287    0.0007     
C   4.8948    9.3433    0.0005     
O   4.5427   10.7238    0.0009     
H  -4.6514  -11.2490    0.0005     
H  -5.4634   -9.9481    0.8855     
H  -5.4640   -9.9479   -0.8837     
H  -2.9547   -9.6282   -0.8779     
H  -2.9541   -9.6284    0.8781     
H  -4.3989   -7.5694    0.8793     
H  -4.3995   -7.5692   -0.8776     
H  -1.8973   -7.2888   -0.8784     
H  -1.8968   -7.2890    0.8784     
H  -3.3413   -5.2278    0.8791     
H  -3.3419   -5.2276   -0.8777     
H  -0.8398   -4.9502   -0.8784     
H  -0.8392   -4.9503    0.8784     
H  -2.2822   -2.8880    0.8790     
H  -2.2827   -2.8878   -0.8778     
H   0.2196   -2.6122   -0.8785     
H   0.2201   -2.6123    0.8783     
H  -1.2218   -0.5492    0.8789     
H  -1.2222   -0.5490   -0.8779     
H   1.2802   -0.2742   -0.8785     
H   1.2806   -0.2744    0.8783     
H  -0.1611    1.7888    0.8789     
H  -0.1615    1.7890   -0.8779     
H   2.3408    2.0643   -0.8785     
H   2.3412    2.0641    0.8784     
H   0.8986    4.1267    0.8789     
H   0.8982    4.1269   -0.8779     
H   3.4003    4.4036   -0.8785     
H   3.4006    4.4034    0.8786     
H   1.9566    6.4654    0.8790     
H   1.9563    6.4656   -0.8777     
H   4.4565    6.7412   -0.8787     
H   4.4568    6.7409    0.8791     
H   3.0174    8.8154    0.8808     
H   3.0170    8.8157   -0.8791     
H   5.4981    9.0881   -0.8874     
H   5.4985    9.0878    0.8881     
H   5.3631   11.2394    0.0007     
