55

C   8.4617    0.7572    0.3818     
C   7.4504    0.1779   -0.2776     
C   7.3345   -1.2508   -0.7388     
C   9.7691    0.1454    0.8111     
C   6.1521   -1.9943   -0.0866     
C  10.9865    0.8084    0.1367     
C   5.9851   -3.4305   -0.5984     
C  12.3288    0.2542    0.6307     
C   4.8103   -4.1780    0.0459     
C  13.5442    0.9035   -0.0436     
C   4.6475   -5.6157   -0.4639     
C  14.8876    0.3570    0.4570     
C   3.4729   -6.3648    0.1793     
C  16.1033    1.0032   -0.2195     
C   3.3182   -7.8011   -0.3349     
C  17.4471    0.4608    0.2841     
C   2.1517   -8.5427    0.3048     
C  18.6555    1.1107   -0.3976     
O   2.1069   -9.8551   -0.2481     
H   8.3539    1.8140    0.6344     
H   6.5812    0.7979   -0.5060     
H   7.1925   -1.2635   -1.8309     
H   8.2609   -1.8039   -0.5453     
H   9.8733    0.2557    1.9019     
H   9.7864   -0.9321    0.6100     
H   6.2929   -2.0033    1.0031     
H   5.2250   -1.4313   -0.2690     
H  10.9085    0.6758   -0.9513     
H  10.9526    1.8934    0.3140     
H   5.8498   -3.4138   -1.6902     
H   6.9144   -3.9910   -0.4173     
H  12.3995    0.3935    1.7200     
H  12.3580   -0.8328    0.4622     
H   4.9445   -4.1923    1.1377     
H   3.8802   -3.6197   -0.1377     
H  13.4760    0.7583   -1.1320     
H  13.5116    1.9911    0.1192     
H   4.5135   -5.6020   -1.5555     
H   5.5771   -6.1742   -0.2799     
H  14.9565    0.5050    1.5451     
H  14.9193   -0.7312    0.2971     
H   3.6075   -6.3776    1.2712     
H   2.5434   -5.8061   -0.0059     
H  16.0372    0.8525   -1.3075     
H  16.0709    2.0919   -0.0627     
H   3.1713   -7.7994   -1.4231     
H   4.2369   -8.3718   -0.1449     
H  17.5140    0.6128    1.3709     
H  17.4796   -0.6270    0.1277     
H   2.2871   -8.5777    1.3992     
H   1.2120   -7.9982    0.1106     
H  19.5988    0.7037   -0.0156     
H  18.6357    0.9444   -1.4818     
H  18.6687    2.1950   -0.2308     
H   1.3640  -10.3245    0.1603     
