SMDSOLVENT  "DIIODOMETHANE"  FINAL SINGLE POINT ENERGY     -1391.042325131805
SMDSOLVENT  "N-DECANE"  FINAL SINGLE POINT ENERGY     -1391.021341535694
SMDSOLVENT  "NITROMETHANE"  FINAL SINGLE POINT ENERGY     -1391.065839224802
SMDSOLVENT  "1-BROMO-2-METHYLPROPANE"  FINAL SINGLE POINT ENERGY     -1391.057140347250
SMDSOLVENT  "METHYL METHANOATE"  FINAL SINGLE POINT ENERGY     -1391.059264564916
SMDSOLVENT  "DIBROMOMETHANE"  FINAL SINGLE POINT ENERGY     -1391.055907564147
SMDSOLVENT  "ETHANETHIOL"  FINAL SINGLE POINT ENERGY     -1391.055886538652
SMDSOLVENT  "NITROETHANE"  FINAL SINGLE POINT ENERGY     -1391.065373799098
SMDSOLVENT  "NITROBENZENE"  FINAL SINGLE POINT ENERGY     -1391.065370472397
SMDSOLVENT  "1-NITROPROPANE"  FINAL SINGLE POINT ENERGY     -1391.064743364669
SMDSOLVENT  "ACETOPHENONE"  FINAL SINGLE POINT ENERGY     -1391.063815617848
SMDSOLVENT  "ETHYL METHANOATE"  FINAL SINGLE POINT ENERGY     -1391.059078780605
SMDSOLVENT  "N-UNDECANE"  FINAL SINGLE POINT ENERGY     -1391.021480712527
SMDSOLVENT  "2-NITROPROPANE"  FINAL SINGLE POINT ENERGY     -1391.065370632976
SMDSOLVENT  "BENZONITRILE"  FINAL SINGLE POINT ENERGY     -1391.065045404133
SMDSOLVENT  "2-CHLOROBUTANE"  FINAL SINGLE POINT ENERGY     -1391.058506211779
SMDSOLVENT  "1,1,1-TRICHLOROETHANE"  FINAL SINGLE POINT ENERGY     -1391.056689841406
SMDSOLVENT  "1-CHLOROPROPANE"  FINAL SINGLE POINT ENERGY     -1391.058432587957
SMDSOLVENT  "2,6-DIMETHYLPYRIDINE"  FINAL SINGLE POINT ENERGY     -1391.058474519663
SMDSOLVENT  "PENTANAL"  FINAL SINGLE POINT ENERGY     -1391.061115391497
SMDSOLVENT  "BROMOETHANE"  FINAL SINGLE POINT ENERGY     -1391.059219559121
SMDSOLVENT  "2-BROMOPROPANE"  FINAL SINGLE POINT ENERGY     -1391.059687647489
SMDSOLVENT  "2-OCTANONE"  FINAL SINGLE POINT ENERGY     -1391.060961035719
SMDSOLVENT  "CIS-1,2-DIMETHYLCYCLOHEXANE"  FINAL SINGLE POINT ENERGY     -1391.022624775179
SMDSOLVENT  "PENTYLAMINE"  FINAL SINGLE POINT ENERGY     -1391.051037187834
SMDSOLVENT  "1,1,2-TRICHLOROETHANE"  FINAL SINGLE POINT ENERGY     -1391.057316977092
SMDSOLVENT  "4-METHYLPYRIDINE"  FINAL SINGLE POINT ENERGY     -1391.062676191149
SMDSOLVENT  "N,N-DIMETHYLFORMAMIDE"  FINAL SINGLE POINT ENERGY     -1391.067902727247
SMDSOLVENT  "2,4-DIMETHYLPYRIDINE"  FINAL SINGLE POINT ENERGY     -1391.061349649586
SMDSOLVENT  "ACETIC ACID"  FINAL SINGLE POINT ENERGY     -1391.053486795398
SMDSOLVENT  "3-METHYLPYRIDINE"  FINAL SINGLE POINT ENERGY     -1391.062571500161
SMDSOLVENT  "PYRIDINE"  FINAL SINGLE POINT ENERGY     -1391.063211915258
SMDSOLVENT  "5-NONANONE"  FINAL SINGLE POINT ENERGY     -1391.062012148105
SMDSOLVENT  "2-METHYLPYRIDINE"  FINAL SINGLE POINT ENERGY     -1391.061730360275
SMDSOLVENT  "N-NONANE"  FINAL SINGLE POINT ENERGY     -1391.021059836918
SMDSOLVENT  "FORMAMIDE"  FINAL SINGLE POINT ENERGY     -1391.068074928552
SMDSOLVENT  "2-HEPTANONE"  FINAL SINGLE POINT ENERGY     -1391.062828121278
SMDSOLVENT  "BENZALDEHYDE"  FINAL SINGLE POINT ENERGY     -1391.064627192029
SMDSOLVENT  "BUTANONITRILE"  FINAL SINGLE POINT ENERGY     -1391.065963340758
SMDSOLVENT  "CHLOROFORM"  FINAL SINGLE POINT ENERGY     -1391.051715313841
SMDSOLVENT  "BUTANAL"  FINAL SINGLE POINT ENERGY     -1391.063931773051
SMDSOLVENT  "BUTYLAMINE"  FINAL SINGLE POINT ENERGY     -1391.053433315177
SMDSOLVENT  "4-HEPTANONE"  FINAL SINGLE POINT ENERGY     -1391.063573630422
SMDSOLVENT  "2-HEXANONE"  FINAL SINGLE POINT ENERGY     -1391.064477136299
SMDSOLVENT  "PROPANONITRILE"  FINAL SINGLE POINT ENERGY     -1391.067095085694
SMDSOLVENT  "CYCLOPENTANE"  FINAL SINGLE POINT ENERGY     -1391.021227065073
SMDSOLVENT  "N,N-DIMETHYLACETAMIDE"  FINAL SINGLE POINT ENERGY     -1391.068662880924
SMDSOLVENT  "FORMIC ACID"  FINAL SINGLE POINT ENERGY     -1391.063670824280
SMDSOLVENT  "1,2-DICHLOROETHANE"  FINAL SINGLE POINT ENERGY     -1391.060873687376
SMDSOLVENT  "N-METHYLANILINE"  FINAL SINGLE POINT ENERGY     -1391.056821004109
SMDSOLVENT  "4-METHYL-2-PENTANONE"  FINAL SINGLE POINT ENERGY     -1391.064335620471
SMDSOLVENT  "3-PENTANONE"  FINAL SINGLE POINT ENERGY     -1391.065748204518
SMDSOLVENT  "2-PENTANONE"  FINAL SINGLE POINT ENERGY     -1391.065547984497
SMDSOLVENT  "BUTANONE"  FINAL SINGLE POINT ENERGY     -1391.066351589895
SMDSOLVENT  "ACETONITRILE"  FINAL SINGLE POINT ENERGY     -1391.068201830720
SMDSOLVENT  "PROPYLAMINE"  FINAL SINGLE POINT ENERGY     -1391.055628681207
SMDSOLVENT  "N-OCTANE"  FINAL SINGLE POINT ENERGY     -1391.020909048988
SMDSOLVENT  "PROPANAL"  FINAL SINGLE POINT ENERGY     -1391.066351451162
SMDSOLVENT  "Z-1,2-DICHLOROETHENE"  FINAL SINGLE POINT ENERGY     -1391.060978032724
SMDSOLVENT  "DICHLOROMETHANE"  FINAL SINGLE POINT ENERGY     -1391.061063260515
SMDSOLVENT  "ACETONE"  FINAL SINGLE POINT ENERGY     -1391.067830807324
SMDSOLVENT  "O-CRESOL"  FINAL SINGLE POINT ENERGY     -1391.058918333214
SMDSOLVENT  "ANILINE"  FINAL SINGLE POINT ENERGY     -1391.060821323558
SMDSOLVENT  "1,2-ETHANEDIOL"  FINAL SINGLE POINT ENERGY     -1391.071475054246
SMDSOLVENT  "TRIBUTYLPHOSPHATE"  FINAL SINGLE POINT ENERGY     -1391.065750530254
SMDSOLVENT  "WATER"  FINAL SINGLE POINT ENERGY     -1391.078816057860
SMDSOLVENT  "M-CRESOL"  FINAL SINGLE POINT ENERGY     -1391.066937750075
SMDSOLVENT  "1,4-DIOXANE"  FINAL SINGLE POINT ENERGY     -1391.027107935945
SMDSOLVENT  "1-DECANOL"  FINAL SINGLE POINT ENERGY     -1391.066619893205
SMDSOLVENT  "2,2,2-TRIFLUOROETHANOL"  FINAL SINGLE POINT ENERGY     -1391.072277528808
SMDSOLVENT  "1-NONANOL"  FINAL SINGLE POINT ENERGY     -1391.069098841899
SMDSOLVENT  "1-OCTANOL"  FINAL SINGLE POINT ENERGY     -1391.071415515499
SMDSOLVENT  "CYCLOPENTANOL"  FINAL SINGLE POINT ENERGY     -1391.075033283820
SMDSOLVENT  "BENZYL ALCOHOL"  FINAL SINGLE POINT ENERGY     -1391.073242522814
SMDSOLVENT  "2-METHOXYETHANOL"  FINAL SINGLE POINT ENERGY     -1391.076232231068
SMDSOLVENT  "1-HEPTANOL"  FINAL SINGLE POINT ENERGY     -1391.073345220308
SMDSOLVENT  "1-HEXANOL"  FINAL SINGLE POINT ENERGY     -1391.074770796803
SMDSOLVENT  "2-METHYL-2-PROPANOL"  FINAL SINGLE POINT ENERGY     -1391.075251139008
SMDSOLVENT  "METHYLCYCLOHEXANE"  FINAL SINGLE POINT ENERGY     -1391.022335918437
SMDSOLVENT  "1-PENTANOL"  FINAL SINGLE POINT ENERGY     -1391.076833775926
SMDSOLVENT  "N-METHYLFORMAMIDE"  FINAL SINGLE POINT ENERGY     -1391.083197249422
SMDSOLVENT  "2-BUTANOL"  FINAL SINGLE POINT ENERGY     -1391.077380208301
SMDSOLVENT  "1-BUTANOL"  FINAL SINGLE POINT ENERGY     -1391.078086438136
SMDSOLVENT  "2-PROPEN-1-OL"  FINAL SINGLE POINT ENERGY     -1391.079098500697
SMDSOLVENT  "2-METHYL-1-PROPANOL"  FINAL SINGLE POINT ENERGY     -1391.078512870514
SMDSOLVENT  "2-PROPANOL"  FINAL SINGLE POINT ENERGY     -1391.079208526826
SMDSOLVENT  "1-PROPANOL"  FINAL SINGLE POINT ENERGY     -1391.079752460640
SMDSOLVENT  "ETHANOL"  FINAL SINGLE POINT ENERGY     -1391.081195381136
SMDSOLVENT  "METHANOL"  FINAL SINGLE POINT ENERGY     -1391.083481425460
SMDSOLVENT  "N-HEPTANE"  FINAL SINGLE POINT ENERGY     -1391.020591112967
SMDSOLVENT  "PENTANOIC ACID"  FINAL SINGLE POINT ENERGY     -1391.025262473061
SMDSOLVENT  "CIS-DECALIN"  FINAL SINGLE POINT ENERGY     -1391.024066576609
SMDSOLVENT  "N-HEXANE"  FINAL SINGLE POINT ENERGY     -1391.020302911941
SMDSOLVENT  "2,4-DIMETHYLPENTANE"  FINAL SINGLE POINT ENERGY     -1391.020720437008
SMDSOLVENT  "N-PENTANE"  FINAL SINGLE POINT ENERGY     -1391.019757638723
SMDSOLVENT  "2-METHYLPENTANE"  FINAL SINGLE POINT ENERGY     -1391.020776289209
SMDSOLVENT  "2,2,4-TRIMETHYLPENTANE"  FINAL SINGLE POINT ENERGY     -1391.021598173430
SMDSOLVENT  "E-1,2-DICHLOROETHENE"  FINAL SINGLE POINT ENERGY     -1391.024331984271
SMDSOLVENT  "TETRACHLOROETHENE"  FINAL SINGLE POINT ENERGY     -1391.027070613323
SMDSOLVENT  "PERFLUOROBENZENE"  FINAL SINGLE POINT ENERGY     -1391.024062281118
SMDSOLVENT  "1-HEXENE"  FINAL SINGLE POINT ENERGY     -1391.025065720407
SMDSOLVENT  "1-PENTENE"  FINAL SINGLE POINT ENERGY     -1391.023972141304
SMDSOLVENT  "N-HEXADECANE"  FINAL SINGLE POINT ENERGY     -1391.021641131084
SMDSOLVENT  "N-BUTYLBENZENE"  FINAL SINGLE POINT ENERGY     -1391.029339535704
SMDSOLVENT  "E-2-PENTENE"  FINAL SINGLE POINT ENERGY     -1391.025048923414
SMDSOLVENT  "BUTANOIC ACID"  FINAL SINGLE POINT ENERGY     -1391.030340794649
SMDSOLVENT  "SEC-BUTYLBENZENE"  FINAL SINGLE POINT ENERGY     -1391.029355134706
SMDSOLVENT  "P-ISOPROPYLTOLUENE"  FINAL SINGLE POINT ENERGY     -1391.028055966829
SMDSOLVENT  "TERT-BUTYLBENZENE"  FINAL SINGLE POINT ENERGY     -1391.029503625206
SMDSOLVENT  "1,2,4-TRIMETHYLBENZENE"  FINAL SINGLE POINT ENERGY     -1391.029866313331
SMDSOLVENT  "CARBON DISULFIDE"  FINAL SINGLE POINT ENERGY     -1391.031951322067
SMDSOLVENT  "MESITYLENE"  FINAL SINGLE POINT ENERGY     -1391.028644669755
SMDSOLVENT  "P-XYLENE"  FINAL SINGLE POINT ENERGY     -1391.028678658642
SMDSOLVENT  "N-PENTADECANE"  FINAL SINGLE POINT ENERGY     -1391.021593445593
SMDSOLVENT  "ISOPROPYLBENZENE"  FINAL SINGLE POINT ENERGY     -1391.030119833052
SMDSOLVENT  "M-XYLENE"  FINAL SINGLE POINT ENERGY     -1391.029849390502
SMDSOLVENT  "TETRALIN"  FINAL SINGLE POINT ENERGY     -1391.034374842620
SMDSOLVENT  "XYLENE"  FINAL SINGLE POINT ENERGY     -1391.030427050331
SMDSOLVENT  "TETRAHYDROTHIOPHENE-S,S-DIOXIDE"  FINAL SINGLE POINT ENERGY     -1391.061675144499
SMDSOLVENT  "ETHYLBENZENE"  FINAL SINGLE POINT ENERGY     -1391.031046748289
SMDSOLVENT  "1-IODOHEXADECANE"  FINAL SINGLE POINT ENERGY     -1391.040194643002
SMDSOLVENT  "CARBON TETRACHLORIDE"  FINAL SINGLE POINT ENERGY     -1391.028265214263
SMDSOLVENT  "O-XYLENE"  FINAL SINGLE POINT ENERGY     -1391.032512058540
SMDSOLVENT  "TOLUENE"  FINAL SINGLE POINT ENERGY     -1391.030735707953
SMDSOLVENT  "DECALIN"  FINAL SINGLE POINT ENERGY     -1391.024033266132
SMDSOLVENT  "BENZENE"  FINAL SINGLE POINT ENERGY     -1391.029638339968
SMDSOLVENT  "THIOPHENE"  FINAL SINGLE POINT ENERGY     -1391.034944920637
SMDSOLVENT  "PROPANOIC ACID"  FINAL SINGLE POINT ENERGY     -1391.036085070424
SMDSOLVENT  "DIBUTYLETHER"  FINAL SINGLE POINT ENERGY     -1391.039357186418
SMDSOLVENT  "1-HEXYNE"  FINAL SINGLE POINT ENERGY     -1391.033221184796
SMDSOLVENT  "TRIETHYLAMINE"  FINAL SINGLE POINT ENERGY     -1391.034586321262
SMDSOLVENT  "1-FLUOROOCTANE"  FINAL SINGLE POINT ENERGY     -1391.044276866777
SMDSOLVENT  "ANISOLE"  FINAL SINGLE POINT ENERGY     -1391.046319488109
SMDSOLVENT  "BROMOFORM"  FINAL SINGLE POINT ENERGY     -1391.045216078941
SMDSOLVENT  "1-BROMOOCTANE"  FINAL SINGLE POINT ENERGY     -1391.048905710485
SMDSOLVENT  "N-DODECANE"  FINAL SINGLE POINT ENERGY     -1391.021445004872
SMDSOLVENT  "IODOBENZENE"  FINAL SINGLE POINT ENERGY     -1391.047080999745
SMDSOLVENT  "ETHYL PHENYL ETHER"  FINAL SINGLE POINT ENERGY     -1391.046696544944
SMDSOLVENT  "TRICHLOROETHENE"  FINAL SINGLE POINT ENERGY     -1391.041290862652
SMDSOLVENT  "1,2-DIBROMOETHANE"  FINAL SINGLE POINT ENERGY     -1391.048458081055
SMDSOLVENT  "O-CHLOROTOLUENE"  FINAL SINGLE POINT ENERGY     -1391.047744098996
SMDSOLVENT  "DIPROPYLAMINE"  FINAL SINGLE POINT ENERGY     -1391.040152540765
SMDSOLVENT  "THIOPHENOL"  FINAL SINGLE POINT ENERGY     -1391.046603155925
SMDSOLVENT  "1-IODOPENTANE"  FINAL SINGLE POINT ENERGY     -1391.051631929978
SMDSOLVENT  "DIISOPROPYL ETHER"  FINAL SINGLE POINT ENERGY     -1391.044183930109
SMDSOLVENT  "METHYL BENZOATE"  FINAL SINGLE POINT ENERGY     -1391.054772696313
SMDSOLVENT  "TRANS-DECALIN"  FINAL SINGLE POINT ENERGY     -1391.023994071145
SMDSOLVENT  "BROMOBENZENE"  FINAL SINGLE POINT ENERGY     -1391.050851498976
SMDSOLVENT  "PENTYL ETHANOATE"  FINAL SINGLE POINT ENERGY     -1391.050342012660
SMDSOLVENT  "1-CHLOROHEXANE"  FINAL SINGLE POINT ENERGY     -1391.052434568232
SMDSOLVENT  "BUTYL ETHANOATE"  FINAL SINGLE POINT ENERGY     -1391.051439226360
SMDSOLVENT  "1-BROMOPENTANE"  FINAL SINGLE POINT ENERGY     -1391.053286473687
SMDSOLVENT  "1-IODOBUTANE"  FINAL SINGLE POINT ENERGY     -1391.053178333344
SMDSOLVENT  "IODOMETHANE"  FINAL SINGLE POINT ENERGY     -1391.054343091506
SMDSOLVENT  "A-CHLOROTOLUENE"  FINAL SINGLE POINT ENERGY     -1391.054786492195
SMDSOLVENT  "CHLOROBENZENE"  FINAL SINGLE POINT ENERGY     -1391.052058993400
SMDSOLVENT  "DIMETHYLSULFOXIDE"  FINAL SINGLE POINT ENERGY     -1391.066655359315
SMDSOLVENT  "HEXANOIC ACID"  FINAL SINGLE POINT ENERGY     -1391.023323700135
SMDSOLVENT  "1-IODOPROPANE"  FINAL SINGLE POINT ENERGY     -1391.054860890294
SMDSOLVENT  "METHYL BUTANOATE"  FINAL SINGLE POINT ENERGY     -1391.053439895773
SMDSOLVENT  "1-CHLOROPENTANE"  FINAL SINGLE POINT ENERGY     -1391.054203463362
SMDSOLVENT  "DIMETHYL DISULFIDE"  FINAL SINGLE POINT ENERGY     -1391.058383944013
SMDSOLVENT  "PROPYL ETHANOATE"  FINAL SINGLE POINT ENERGY     -1391.053529886462
SMDSOLVENT  "O-NITROTOLUENE"  FINAL SINGLE POINT ENERGY     -1391.063621973035
SMDSOLVENT  "IODOETHANE"  FINAL SINGLE POINT ENERGY     -1391.056245661521
SMDSOLVENT  "DIETHYL SULFIDE"  FINAL SINGLE POINT ENERGY     -1391.053615465452
SMDSOLVENT  "O-DICHLOROBENZENE"  FINAL SINGLE POINT ENERGY     -1391.058185556166
SMDSOLVENT  "METHYL PROPANOATE"  FINAL SINGLE POINT ENERGY     -1391.054897729920
SMDSOLVENT  "CYCLOHEXANE"  FINAL SINGLE POINT ENERGY     -1391.021792773960
SMDSOLVENT  "TETRAHYDROFURAN"  FINAL SINGLE POINT ENERGY     -1391.057355998930
SMDSOLVENT  "METHYL ETHANOATE"  FINAL SINGLE POINT ENERGY     -1391.056517731260
SMDSOLVENT  "ETHYL ETHANOATE"  FINAL SINGLE POINT ENERGY     -1391.054926716428
SMDSOLVENT  "DIETHYL ETHER"  FINAL SINGLE POINT ENERGY     -1391.049910391418
SMDSOLVENT  "DIPHENYLETHER"  FINAL SINGLE POINT ENERGY     -1391.046555959394
SMDSOLVENT  "CYCLOHEXANONE"  FINAL SINGLE POINT ENERGY     -1391.063132195200
SMDSOLVENT  "CYCLOPENTANONE"  FINAL SINGLE POINT ENERGY     -1391.062329202986
SMDSOLVENT  "DIETHYLAMINE"  FINAL SINGLE POINT ENERGY     -1391.047150807702
SMDSOLVENT  "1-BROMOPROPANE"  FINAL SINGLE POINT ENERGY     -1391.057303221385
SMDSOLVENT  "FLUOROBENZENE"  FINAL SINGLE POINT ENERGY     -1391.052814237382
