SMDSOLVENT  "DIIODOMETHANE"  FINAL SINGLE POINT ENERGY     -1827.976643020698
SMDSOLVENT  "N-DECANE"  FINAL SINGLE POINT ENERGY     -1827.992231448317
SMDSOLVENT  "NITROMETHANE"  FINAL SINGLE POINT ENERGY     -1827.991674961088
SMDSOLVENT  "1-BROMO-2-METHYLPROPANE"  FINAL SINGLE POINT ENERGY     -1828.001716608032
SMDSOLVENT  "METHYL METHANOATE"  FINAL SINGLE POINT ENERGY     -1827.997727505440
SMDSOLVENT  "DIBROMOMETHANE"  FINAL SINGLE POINT ENERGY     -1827.997156815838
SMDSOLVENT  "ETHANETHIOL"  FINAL SINGLE POINT ENERGY     -1828.001154442030
SMDSOLVENT  "NITROETHANE"  FINAL SINGLE POINT ENERGY     -1827.995289643162
SMDSOLVENT  "NITROBENZENE"  FINAL SINGLE POINT ENERGY     -1827.998074070618
SMDSOLVENT  "1-NITROPROPANE"  FINAL SINGLE POINT ENERGY     -1827.997197867669
SMDSOLVENT  "ACETOPHENONE"  FINAL SINGLE POINT ENERGY     -1827.996958241435
SMDSOLVENT  "ETHYL METHANOATE"  FINAL SINGLE POINT ENERGY     -1827.999053712565
SMDSOLVENT  "N-UNDECANE"  FINAL SINGLE POINT ENERGY     -1827.992628115803
SMDSOLVENT  "2-NITROPROPANE"  FINAL SINGLE POINT ENERGY     -1827.997610506448
SMDSOLVENT  "BENZONITRILE"  FINAL SINGLE POINT ENERGY     -1827.998453916658
SMDSOLVENT  "2-CHLOROBUTANE"  FINAL SINGLE POINT ENERGY     -1828.002614333766
SMDSOLVENT  "1,1,1-TRICHLOROETHANE"  FINAL SINGLE POINT ENERGY     -1828.004064941335
SMDSOLVENT  "1-CHLOROPROPANE"  FINAL SINGLE POINT ENERGY     -1828.002805518368
SMDSOLVENT  "2,6-DIMETHYLPYRIDINE"  FINAL SINGLE POINT ENERGY     -1827.999043260575
SMDSOLVENT  "PENTANAL"  FINAL SINGLE POINT ENERGY     -1827.998804324081
SMDSOLVENT  "BROMOETHANE"  FINAL SINGLE POINT ENERGY     -1828.002898687759
SMDSOLVENT  "2-BROMOPROPANE"  FINAL SINGLE POINT ENERGY     -1828.002788435878
SMDSOLVENT  "2-OCTANONE"  FINAL SINGLE POINT ENERGY     -1827.998869697907
SMDSOLVENT  "CIS-1,2-DIMETHYLCYCLOHEXANE"  FINAL SINGLE POINT ENERGY     -1827.992108232106
SMDSOLVENT  "PENTYLAMINE"  FINAL SINGLE POINT ENERGY     -1827.996212136035
SMDSOLVENT  "1,1,2-TRICHLOROETHANE"  FINAL SINGLE POINT ENERGY     -1827.997683043086
SMDSOLVENT  "4-METHYLPYRIDINE"  FINAL SINGLE POINT ENERGY     -1827.998706994952
SMDSOLVENT  "N,N-DIMETHYLFORMAMIDE"  FINAL SINGLE POINT ENERGY     -1827.994167725510
SMDSOLVENT  "2,4-DIMETHYLPYRIDINE"  FINAL SINGLE POINT ENERGY     -1827.998862120384
SMDSOLVENT  "ACETIC ACID"  FINAL SINGLE POINT ENERGY     -1827.987128976687
SMDSOLVENT  "3-METHYLPYRIDINE"  FINAL SINGLE POINT ENERGY     -1827.998966304066
SMDSOLVENT  "PYRIDINE"  FINAL SINGLE POINT ENERGY     -1827.998985935872
SMDSOLVENT  "5-NONANONE"  FINAL SINGLE POINT ENERGY     -1827.999010932818
SMDSOLVENT  "2-METHYLPYRIDINE"  FINAL SINGLE POINT ENERGY     -1827.999369911967
SMDSOLVENT  "N-NONANE"  FINAL SINGLE POINT ENERGY     -1827.992702573406
SMDSOLVENT  "FORMAMIDE"  FINAL SINGLE POINT ENERGY     -1827.972464005704
SMDSOLVENT  "2-HEPTANONE"  FINAL SINGLE POINT ENERGY     -1827.998985117181
SMDSOLVENT  "BENZALDEHYDE"  FINAL SINGLE POINT ENERGY     -1828.000255625676
SMDSOLVENT  "BUTANONITRILE"  FINAL SINGLE POINT ENERGY     -1827.998994958620
SMDSOLVENT  "CHLOROFORM"  FINAL SINGLE POINT ENERGY     -1828.002660461401
SMDSOLVENT  "BUTANAL"  FINAL SINGLE POINT ENERGY     -1827.999957363173
SMDSOLVENT  "BUTYLAMINE"  FINAL SINGLE POINT ENERGY     -1827.996320995647
SMDSOLVENT  "4-HEPTANONE"  FINAL SINGLE POINT ENERGY     -1827.999910378711
SMDSOLVENT  "2-HEXANONE"  FINAL SINGLE POINT ENERGY     -1827.999616810120
SMDSOLVENT  "PROPANONITRILE"  FINAL SINGLE POINT ENERGY     -1827.998580849870
SMDSOLVENT  "CYCLOPENTANE"  FINAL SINGLE POINT ENERGY     -1827.993135361590
SMDSOLVENT  "N,N-DIMETHYLACETAMIDE"  FINAL SINGLE POINT ENERGY     -1827.995402468689
SMDSOLVENT  "FORMIC ACID"  FINAL SINGLE POINT ENERGY     -1827.980910089570
SMDSOLVENT  "1,2-DICHLOROETHANE"  FINAL SINGLE POINT ENERGY     -1827.998563379992
SMDSOLVENT  "N-METHYLANILINE"  FINAL SINGLE POINT ENERGY     -1827.997066780343
SMDSOLVENT  "4-METHYL-2-PENTANONE"  FINAL SINGLE POINT ENERGY     -1828.000816360800
SMDSOLVENT  "3-PENTANONE"  FINAL SINGLE POINT ENERGY     -1828.000171903842
SMDSOLVENT  "2-PENTANONE"  FINAL SINGLE POINT ENERGY     -1828.001088092507
SMDSOLVENT  "BUTANONE"  FINAL SINGLE POINT ENERGY     -1828.000431539256
SMDSOLVENT  "ACETONITRILE"  FINAL SINGLE POINT ENERGY     -1827.996533104218
SMDSOLVENT  "PROPYLAMINE"  FINAL SINGLE POINT ENERGY     -1827.997602667048
SMDSOLVENT  "N-OCTANE"  FINAL SINGLE POINT ENERGY     -1827.993277097244
SMDSOLVENT  "PROPANAL"  FINAL SINGLE POINT ENERGY     -1828.001169953151
SMDSOLVENT  "Z-1,2-DICHLOROETHENE"  FINAL SINGLE POINT ENERGY     -1828.001868832747
SMDSOLVENT  "DICHLOROMETHANE"  FINAL SINGLE POINT ENERGY     -1828.003300378176
SMDSOLVENT  "ACETONE"  FINAL SINGLE POINT ENERGY     -1828.000173512549
SMDSOLVENT  "O-CRESOL"  FINAL SINGLE POINT ENERGY     -1827.992810209438
SMDSOLVENT  "ANILINE"  FINAL SINGLE POINT ENERGY     -1827.995537831531
SMDSOLVENT  "1,2-ETHANEDIOL"  FINAL SINGLE POINT ENERGY     -1827.979285584436
SMDSOLVENT  "TRIBUTYLPHOSPHATE"  FINAL SINGLE POINT ENERGY     -1828.002386716057
SMDSOLVENT  "WATER"  FINAL SINGLE POINT ENERGY     -1827.965724133024
SMDSOLVENT  "M-CRESOL"  FINAL SINGLE POINT ENERGY     -1827.995257201787
SMDSOLVENT  "1,4-DIOXANE"  FINAL SINGLE POINT ENERGY     -1827.984991752852
SMDSOLVENT  "1-DECANOL"  FINAL SINGLE POINT ENERGY     -1827.996369533807
SMDSOLVENT  "2,2,2-TRIFLUOROETHANOL"  FINAL SINGLE POINT ENERGY     -1827.992794139689
SMDSOLVENT  "1-NONANOL"  FINAL SINGLE POINT ENERGY     -1827.997436840737
SMDSOLVENT  "1-OCTANOL"  FINAL SINGLE POINT ENERGY     -1827.998567812975
SMDSOLVENT  "CYCLOPENTANOL"  FINAL SINGLE POINT ENERGY     -1827.996788562436
SMDSOLVENT  "BENZYL ALCOHOL"  FINAL SINGLE POINT ENERGY     -1827.999208639412
SMDSOLVENT  "2-METHOXYETHANOL"  FINAL SINGLE POINT ENERGY     -1827.995682647103
SMDSOLVENT  "1-HEPTANOL"  FINAL SINGLE POINT ENERGY     -1827.999255803744
SMDSOLVENT  "1-HEXANOL"  FINAL SINGLE POINT ENERGY     -1828.000115271019
SMDSOLVENT  "2-METHYL-2-PROPANOL"  FINAL SINGLE POINT ENERGY     -1828.003421645594
SMDSOLVENT  "METHYLCYCLOHEXANE"  FINAL SINGLE POINT ENERGY     -1827.992970113756
SMDSOLVENT  "1-PENTANOL"  FINAL SINGLE POINT ENERGY     -1828.000811703577
SMDSOLVENT  "N-METHYLFORMAMIDE"  FINAL SINGLE POINT ENERGY     -1827.993704495773
SMDSOLVENT  "2-BUTANOL"  FINAL SINGLE POINT ENERGY     -1828.002585042737
SMDSOLVENT  "1-BUTANOL"  FINAL SINGLE POINT ENERGY     -1828.001147789492
SMDSOLVENT  "2-PROPEN-1-OL"  FINAL SINGLE POINT ENERGY     -1828.001557984972
SMDSOLVENT  "2-METHYL-1-PROPANOL"  FINAL SINGLE POINT ENERGY     -1828.002843248648
SMDSOLVENT  "2-PROPANOL"  FINAL SINGLE POINT ENERGY     -1828.003604171153
SMDSOLVENT  "1-PROPANOL"  FINAL SINGLE POINT ENERGY     -1828.002312180845
SMDSOLVENT  "ETHANOL"  FINAL SINGLE POINT ENERGY     -1828.002929412257
SMDSOLVENT  "METHANOL"  FINAL SINGLE POINT ENERGY     -1828.001854644107
SMDSOLVENT  "N-HEPTANE"  FINAL SINGLE POINT ENERGY     -1827.993936668453
SMDSOLVENT  "PENTANOIC ACID"  FINAL SINGLE POINT ENERGY     -1827.979896885479
SMDSOLVENT  "CIS-DECALIN"  FINAL SINGLE POINT ENERGY     -1827.989444144612
SMDSOLVENT  "N-HEXANE"  FINAL SINGLE POINT ENERGY     -1827.994683952820
SMDSOLVENT  "2,4-DIMETHYLPENTANE"  FINAL SINGLE POINT ENERGY     -1827.995169532661
SMDSOLVENT  "N-PENTANE"  FINAL SINGLE POINT ENERGY     -1827.995668052516
SMDSOLVENT  "2-METHYLPENTANE"  FINAL SINGLE POINT ENERGY     -1827.995411282465
SMDSOLVENT  "2,2,4-TRIMETHYLPENTANE"  FINAL SINGLE POINT ENERGY     -1827.995255283310
SMDSOLVENT  "E-1,2-DICHLOROETHENE"  FINAL SINGLE POINT ENERGY     -1827.993262984374
SMDSOLVENT  "TETRACHLOROETHENE"  FINAL SINGLE POINT ENERGY     -1827.995313127835
SMDSOLVENT  "PERFLUOROBENZENE"  FINAL SINGLE POINT ENERGY     -1827.996645575669
SMDSOLVENT  "1-HEXENE"  FINAL SINGLE POINT ENERGY     -1827.995952325150
SMDSOLVENT  "1-PENTENE"  FINAL SINGLE POINT ENERGY     -1827.996993952305
SMDSOLVENT  "N-HEXADECANE"  FINAL SINGLE POINT ENERGY     -1827.990500308496
SMDSOLVENT  "N-BUTYLBENZENE"  FINAL SINGLE POINT ENERGY     -1827.994659600219
SMDSOLVENT  "E-2-PENTENE"  FINAL SINGLE POINT ENERGY     -1827.996854685427
SMDSOLVENT  "BUTANOIC ACID"  FINAL SINGLE POINT ENERGY     -1827.981596097859
SMDSOLVENT  "SEC-BUTYLBENZENE"  FINAL SINGLE POINT ENERGY     -1827.995095152367
SMDSOLVENT  "P-ISOPROPYLTOLUENE"  FINAL SINGLE POINT ENERGY     -1827.995663883042
SMDSOLVENT  "TERT-BUTYLBENZENE"  FINAL SINGLE POINT ENERGY     -1827.995517466319
SMDSOLVENT  "1,2,4-TRIMETHYLBENZENE"  FINAL SINGLE POINT ENERGY     -1827.995278095502
SMDSOLVENT  "CARBON DISULFIDE"  FINAL SINGLE POINT ENERGY     -1827.996104718419
SMDSOLVENT  "MESITYLENE"  FINAL SINGLE POINT ENERGY     -1827.995949168793
SMDSOLVENT  "P-XYLENE"  FINAL SINGLE POINT ENERGY     -1827.996323720313
SMDSOLVENT  "N-PENTADECANE"  FINAL SINGLE POINT ENERGY     -1827.990680708879
SMDSOLVENT  "ISOPROPYLBENZENE"  FINAL SINGLE POINT ENERGY     -1827.996105516381
SMDSOLVENT  "M-XYLENE"  FINAL SINGLE POINT ENERGY     -1827.996353672981
SMDSOLVENT  "TETRALIN"  FINAL SINGLE POINT ENERGY     -1827.994336789304
SMDSOLVENT  "XYLENE"  FINAL SINGLE POINT ENERGY     -1827.996383807469
SMDSOLVENT  "TETRAHYDROTHIOPHENE-S,S-DIOXIDE"  FINAL SINGLE POINT ENERGY     -1827.975057810645
SMDSOLVENT  "ETHYLBENZENE"  FINAL SINGLE POINT ENERGY     -1827.996470746613
SMDSOLVENT  "1-IODOHEXADECANE"  FINAL SINGLE POINT ENERGY     -1827.992554587544
SMDSOLVENT  "CARBON TETRACHLORIDE"  FINAL SINGLE POINT ENERGY     -1827.999505902758
SMDSOLVENT  "O-XYLENE"  FINAL SINGLE POINT ENERGY     -1827.996414107992
SMDSOLVENT  "TOLUENE"  FINAL SINGLE POINT ENERGY     -1827.998023765530
SMDSOLVENT  "DECALIN"  FINAL SINGLE POINT ENERGY     -1827.990051121284
SMDSOLVENT  "BENZENE"  FINAL SINGLE POINT ENERGY     -1827.999249032000
SMDSOLVENT  "THIOPHENE"  FINAL SINGLE POINT ENERGY     -1827.997648637712
SMDSOLVENT  "PROPANOIC ACID"  FINAL SINGLE POINT ENERGY     -1827.982939772925
SMDSOLVENT  "DIBUTYLETHER"  FINAL SINGLE POINT ENERGY     -1827.993689819580
SMDSOLVENT  "1-HEXYNE"  FINAL SINGLE POINT ENERGY     -1827.995417311971
SMDSOLVENT  "TRIETHYLAMINE"  FINAL SINGLE POINT ENERGY     -1827.994530214731
SMDSOLVENT  "1-FLUOROOCTANE"  FINAL SINGLE POINT ENERGY     -1827.997288687171
SMDSOLVENT  "ANISOLE"  FINAL SINGLE POINT ENERGY     -1827.996097251245
SMDSOLVENT  "BROMOFORM"  FINAL SINGLE POINT ENERGY     -1827.992880641690
SMDSOLVENT  "1-BROMOOCTANE"  FINAL SINGLE POINT ENERGY     -1827.996680475481
SMDSOLVENT  "N-DODECANE"  FINAL SINGLE POINT ENERGY     -1827.991542423762
SMDSOLVENT  "IODOBENZENE"  FINAL SINGLE POINT ENERGY     -1827.998725086834
SMDSOLVENT  "ETHYL PHENYL ETHER"  FINAL SINGLE POINT ENERGY     -1827.996971359181
SMDSOLVENT  "TRICHLOROETHENE"  FINAL SINGLE POINT ENERGY     -1827.998039347705
SMDSOLVENT  "1,2-DIBROMOETHANE"  FINAL SINGLE POINT ENERGY     -1827.992595541910
SMDSOLVENT  "O-CHLOROTOLUENE"  FINAL SINGLE POINT ENERGY     -1827.999297267500
SMDSOLVENT  "DIPROPYLAMINE"  FINAL SINGLE POINT ENERGY     -1827.993968890179
SMDSOLVENT  "THIOPHENOL"  FINAL SINGLE POINT ENERGY     -1827.996645219619
SMDSOLVENT  "1-IODOPENTANE"  FINAL SINGLE POINT ENERGY     -1827.998410075350
SMDSOLVENT  "DIISOPROPYL ETHER"  FINAL SINGLE POINT ENERGY     -1827.999557216554
SMDSOLVENT  "METHYL BENZOATE"  FINAL SINGLE POINT ENERGY     -1827.994902978736
SMDSOLVENT  "TRANS-DECALIN"  FINAL SINGLE POINT ENERGY     -1827.990653735698
SMDSOLVENT  "BROMOBENZENE"  FINAL SINGLE POINT ENERGY     -1828.000516400406
SMDSOLVENT  "PENTYL ETHANOATE"  FINAL SINGLE POINT ENERGY     -1827.996507496950
SMDSOLVENT  "1-CHLOROHEXANE"  FINAL SINGLE POINT ENERGY     -1827.998780528896
SMDSOLVENT  "BUTYL ETHANOATE"  FINAL SINGLE POINT ENERGY     -1827.996730932149
SMDSOLVENT  "1-BROMOPENTANE"  FINAL SINGLE POINT ENERGY     -1827.998967624946
SMDSOLVENT  "1-IODOBUTANE"  FINAL SINGLE POINT ENERGY     -1827.999388736732
SMDSOLVENT  "IODOMETHANE"  FINAL SINGLE POINT ENERGY     -1827.999499783429
SMDSOLVENT  "A-CHLOROTOLUENE"  FINAL SINGLE POINT ENERGY     -1827.997714875349
SMDSOLVENT  "CHLOROBENZENE"  FINAL SINGLE POINT ENERGY     -1828.001349294104
SMDSOLVENT  "DIMETHYLSULFOXIDE"  FINAL SINGLE POINT ENERGY     -1827.986846928811
SMDSOLVENT  "HEXANOIC ACID"  FINAL SINGLE POINT ENERGY     -1827.978934253252
SMDSOLVENT  "1-IODOPROPANE"  FINAL SINGLE POINT ENERGY     -1827.999607184394
SMDSOLVENT  "METHYL BUTANOATE"  FINAL SINGLE POINT ENERGY     -1827.997221650728
SMDSOLVENT  "1-CHLOROPENTANE"  FINAL SINGLE POINT ENERGY     -1828.000009389675
SMDSOLVENT  "DIMETHYL DISULFIDE"  FINAL SINGLE POINT ENERGY     -1827.997482519357
SMDSOLVENT  "PROPYL ETHANOATE"  FINAL SINGLE POINT ENERGY     -1827.997708907015
SMDSOLVENT  "O-NITROTOLUENE"  FINAL SINGLE POINT ENERGY     -1827.996032134824
SMDSOLVENT  "IODOETHANE"  FINAL SINGLE POINT ENERGY     -1828.000442100122
SMDSOLVENT  "DIETHYL SULFIDE"  FINAL SINGLE POINT ENERGY     -1827.999596523441
SMDSOLVENT  "O-DICHLOROBENZENE"  FINAL SINGLE POINT ENERGY     -1828.000707601233
SMDSOLVENT  "METHYL PROPANOATE"  FINAL SINGLE POINT ENERGY     -1827.997388950076
SMDSOLVENT  "CYCLOHEXANE"  FINAL SINGLE POINT ENERGY     -1827.991977685724
SMDSOLVENT  "TETRAHYDROFURAN"  FINAL SINGLE POINT ENERGY     -1827.996686989883
SMDSOLVENT  "METHYL ETHANOATE"  FINAL SINGLE POINT ENERGY     -1827.997080264618
SMDSOLVENT  "ETHYL ETHANOATE"  FINAL SINGLE POINT ENERGY     -1827.997972392484
SMDSOLVENT  "DIETHYL ETHER"  FINAL SINGLE POINT ENERGY     -1828.000986736951
SMDSOLVENT  "DIPHENYLETHER"  FINAL SINGLE POINT ENERGY     -1828.006104743398
SMDSOLVENT  "CYCLOHEXANONE"  FINAL SINGLE POINT ENERGY     -1827.994225243945
SMDSOLVENT  "CYCLOPENTANONE"  FINAL SINGLE POINT ENERGY     -1827.994980198342
SMDSOLVENT  "DIETHYLAMINE"  FINAL SINGLE POINT ENERGY     -1827.996995020459
SMDSOLVENT  "1-BROMOPROPANE"  FINAL SINGLE POINT ENERGY     -1828.001130551101
SMDSOLVENT  "FLUOROBENZENE"  FINAL SINGLE POINT ENERGY     -1828.004111829137
