SMDSOLVENT  "DIIODOMETHANE"  FINAL SINGLE POINT ENERGY     -2685.649334820183
SMDSOLVENT  "N-DECANE"  FINAL SINGLE POINT ENERGY     -2685.674030740544
SMDSOLVENT  "NITROMETHANE"  FINAL SINGLE POINT ENERGY     -2685.670522365348
SMDSOLVENT  "1-BROMO-2-METHYLPROPANE"  FINAL SINGLE POINT ENERGY     -2685.687116929771
SMDSOLVENT  "METHYL METHANOATE"  FINAL SINGLE POINT ENERGY     -2685.680450080345
SMDSOLVENT  "DIBROMOMETHANE"  FINAL SINGLE POINT ENERGY     -2685.678868382436
SMDSOLVENT  "ETHANETHIOL"  FINAL SINGLE POINT ENERGY     -2685.686002524792
SMDSOLVENT  "NITROETHANE"  FINAL SINGLE POINT ENERGY     -2685.676575801465
SMDSOLVENT  "NITROBENZENE"  FINAL SINGLE POINT ENERGY     -2685.681247079258
SMDSOLVENT  "1-NITROPROPANE"  FINAL SINGLE POINT ENERGY     -2685.679788163670
SMDSOLVENT  "ACETOPHENONE"  FINAL SINGLE POINT ENERGY     -2685.679100804614
SMDSOLVENT  "ETHYL METHANOATE"  FINAL SINGLE POINT ENERGY     -2685.682436114755
SMDSOLVENT  "N-UNDECANE"  FINAL SINGLE POINT ENERGY     -2685.674634391911
SMDSOLVENT  "2-NITROPROPANE"  FINAL SINGLE POINT ENERGY     -2685.680338509162
SMDSOLVENT  "BENZONITRILE"  FINAL SINGLE POINT ENERGY     -2685.681676035694
SMDSOLVENT  "2-CHLOROBUTANE"  FINAL SINGLE POINT ENERGY     -2685.688408159354
SMDSOLVENT  "1,1,1-TRICHLOROETHANE"  FINAL SINGLE POINT ENERGY     -2685.690693530327
SMDSOLVENT  "1-CHLOROPROPANE"  FINAL SINGLE POINT ENERGY     -2685.688737331222
SMDSOLVENT  "2,6-DIMETHYLPYRIDINE"  FINAL SINGLE POINT ENERGY     -2685.681888540251
SMDSOLVENT  "PENTANAL"  FINAL SINGLE POINT ENERGY     -2685.681877977861
SMDSOLVENT  "BROMOETHANE"  FINAL SINGLE POINT ENERGY     -2685.688834341874
SMDSOLVENT  "2-BROMOPROPANE"  FINAL SINGLE POINT ENERGY     -2685.688614570896
SMDSOLVENT  "2-OCTANONE"  FINAL SINGLE POINT ENERGY     -2685.681840641588
SMDSOLVENT  "CIS-1,2-DIMETHYLCYCLOHEXANE"  FINAL SINGLE POINT ENERGY     -2685.673829493980
SMDSOLVENT  "PENTYLAMINE"  FINAL SINGLE POINT ENERGY     -2685.675506442132
SMDSOLVENT  "1,1,2-TRICHLOROETHANE"  FINAL SINGLE POINT ENERGY     -2685.678913424424
SMDSOLVENT  "4-METHYLPYRIDINE"  FINAL SINGLE POINT ENERGY     -2685.681549420140
SMDSOLVENT  "N,N-DIMETHYLFORMAMIDE"  FINAL SINGLE POINT ENERGY     -2685.674183252948
SMDSOLVENT  "2,4-DIMETHYLPYRIDINE"  FINAL SINGLE POINT ENERGY     -2685.681575726558
SMDSOLVENT  "ACETIC ACID"  FINAL SINGLE POINT ENERGY     -2685.659427252377
SMDSOLVENT  "3-METHYLPYRIDINE"  FINAL SINGLE POINT ENERGY     -2685.681936763448
SMDSOLVENT  "PYRIDINE"  FINAL SINGLE POINT ENERGY     -2685.682009153160
SMDSOLVENT  "5-NONANONE"  FINAL SINGLE POINT ENERGY     -2685.682037335476
SMDSOLVENT  "2-METHYLPYRIDINE"  FINAL SINGLE POINT ENERGY     -2685.682445976531
SMDSOLVENT  "N-NONANE"  FINAL SINGLE POINT ENERGY     -2685.674737986276
SMDSOLVENT  "FORMAMIDE"  FINAL SINGLE POINT ENERGY     -2685.635174355935
SMDSOLVENT  "2-HEPTANONE"  FINAL SINGLE POINT ENERGY     -2685.681979377899
SMDSOLVENT  "BENZALDEHYDE"  FINAL SINGLE POINT ENERGY     -2685.684221273634
SMDSOLVENT  "BUTANONITRILE"  FINAL SINGLE POINT ENERGY     -2685.682307531682
SMDSOLVENT  "CHLOROFORM"  FINAL SINGLE POINT ENERGY     -2685.686597828713
SMDSOLVENT  "BUTANAL"  FINAL SINGLE POINT ENERGY     -2685.683543966134
SMDSOLVENT  "BUTYLAMINE"  FINAL SINGLE POINT ENERGY     -2685.675498161022
SMDSOLVENT  "4-HEPTANONE"  FINAL SINGLE POINT ENERGY     -2685.683342779245
SMDSOLVENT  "2-HEXANONE"  FINAL SINGLE POINT ENERGY     -2685.682889599604
SMDSOLVENT  "PROPANONITRILE"  FINAL SINGLE POINT ENERGY     -2685.681354244172
SMDSOLVENT  "CYCLOPENTANE"  FINAL SINGLE POINT ENERGY     -2685.675379630278
SMDSOLVENT  "N,N-DIMETHYLACETAMIDE"  FINAL SINGLE POINT ENERGY     -2685.675912337521
SMDSOLVENT  "FORMIC ACID"  FINAL SINGLE POINT ENERGY     -2685.649136308015
SMDSOLVENT  "1,2-DICHLOROETHANE"  FINAL SINGLE POINT ENERGY     -2685.680689745659
SMDSOLVENT  "N-METHYLANILINE"  FINAL SINGLE POINT ENERGY     -2685.676669534760
SMDSOLVENT  "4-METHYL-2-PENTANONE"  FINAL SINGLE POINT ENERGY     -2685.684672930487
SMDSOLVENT  "3-PENTANONE"  FINAL SINGLE POINT ENERGY     -2685.683690610912
SMDSOLVENT  "2-PENTANONE"  FINAL SINGLE POINT ENERGY     -2685.685054183602
SMDSOLVENT  "BUTANONE"  FINAL SINGLE POINT ENERGY     -2685.684059875830
SMDSOLVENT  "ACETONITRILE"  FINAL SINGLE POINT ENERGY     -2685.677461273396
SMDSOLVENT  "PROPYLAMINE"  FINAL SINGLE POINT ENERGY     -2685.677280502635
SMDSOLVENT  "N-OCTANE"  FINAL SINGLE POINT ENERGY     -2685.675594490618
SMDSOLVENT  "PROPANAL"  FINAL SINGLE POINT ENERGY     -2685.685298453919
SMDSOLVENT  "Z-1,2-DICHLOROETHENE"  FINAL SINGLE POINT ENERGY     -2685.685573210920
SMDSOLVENT  "DICHLOROMETHANE"  FINAL SINGLE POINT ENERGY     -2685.687905690287
SMDSOLVENT  "ACETONE"  FINAL SINGLE POINT ENERGY     -2685.683060264851
SMDSOLVENT  "O-CRESOL"  FINAL SINGLE POINT ENERGY     -2685.667604205444
SMDSOLVENT  "ANILINE"  FINAL SINGLE POINT ENERGY     -2685.672666232047
SMDSOLVENT  "1,2-ETHANEDIOL"  FINAL SINGLE POINT ENERGY     -2685.644799028904
SMDSOLVENT  "TRIBUTYLPHOSPHATE"  FINAL SINGLE POINT ENERGY     -2685.685262280812
SMDSOLVENT  "WATER"  FINAL SINGLE POINT ENERGY     -2685.622890759576
SMDSOLVENT  "M-CRESOL"  FINAL SINGLE POINT ENERGY     -2685.670439680160
SMDSOLVENT  "1,4-DIOXANE"  FINAL SINGLE POINT ENERGY     -2685.661550966871
SMDSOLVENT  "1-DECANOL"  FINAL SINGLE POINT ENERGY     -2685.672008747962
SMDSOLVENT  "2,2,2-TRIFLUOROETHANOL"  FINAL SINGLE POINT ENERGY     -2685.666219761202
SMDSOLVENT  "1-NONANOL"  FINAL SINGLE POINT ENERGY     -2685.673368040234
SMDSOLVENT  "1-OCTANOL"  FINAL SINGLE POINT ENERGY     -2685.674842232362
SMDSOLVENT  "CYCLOPENTANOL"  FINAL SINGLE POINT ENERGY     -2685.672133055742
SMDSOLVENT  "BENZYL ALCOHOL"  FINAL SINGLE POINT ENERGY     -2685.675882190877
SMDSOLVENT  "2-METHOXYETHANOL"  FINAL SINGLE POINT ENERGY     -2685.670060878392
SMDSOLVENT  "1-HEPTANOL"  FINAL SINGLE POINT ENERGY     -2685.675683631167
SMDSOLVENT  "1-HEXANOL"  FINAL SINGLE POINT ENERGY     -2685.676838973395
SMDSOLVENT  "2-METHYL-2-PROPANOL"  FINAL SINGLE POINT ENERGY     -2685.682224878176
SMDSOLVENT  "METHYLCYCLOHEXANE"  FINAL SINGLE POINT ENERGY     -2685.675113443006
SMDSOLVENT  "1-PENTANOL"  FINAL SINGLE POINT ENERGY     -2685.677679457046
SMDSOLVENT  "N-METHYLFORMAMIDE"  FINAL SINGLE POINT ENERGY     -2685.665811287575
SMDSOLVENT  "2-BUTANOL"  FINAL SINGLE POINT ENERGY     -2685.680573886418
SMDSOLVENT  "1-BUTANOL"  FINAL SINGLE POINT ENERGY     -2685.678057069717
SMDSOLVENT  "2-PROPEN-1-OL"  FINAL SINGLE POINT ENERGY     -2685.678490353697
SMDSOLVENT  "2-METHYL-1-PROPANOL"  FINAL SINGLE POINT ENERGY     -2685.680592285119
SMDSOLVENT  "2-PROPANOL"  FINAL SINGLE POINT ENERGY     -2685.681936920650
SMDSOLVENT  "1-PROPANOL"  FINAL SINGLE POINT ENERGY     -2685.679651897713
SMDSOLVENT  "ETHANOL"  FINAL SINGLE POINT ENERGY     -2685.680435705654
SMDSOLVENT  "METHANOL"  FINAL SINGLE POINT ENERGY     -2685.678160303753
SMDSOLVENT  "N-HEPTANE"  FINAL SINGLE POINT ENERGY     -2685.676581311874
SMDSOLVENT  "PENTANOIC ACID"  FINAL SINGLE POINT ENERGY     -2685.651606521205
SMDSOLVENT  "CIS-DECALIN"  FINAL SINGLE POINT ENERGY     -2685.669844685092
SMDSOLVENT  "N-HEXANE"  FINAL SINGLE POINT ENERGY     -2685.677696539025
SMDSOLVENT  "2,4-DIMETHYLPENTANE"  FINAL SINGLE POINT ENERGY     -2685.678413212397
SMDSOLVENT  "N-PENTANE"  FINAL SINGLE POINT ENERGY     -2685.679169638895
SMDSOLVENT  "2-METHYLPENTANE"  FINAL SINGLE POINT ENERGY     -2685.678767008910
SMDSOLVENT  "2,2,4-TRIMETHYLPENTANE"  FINAL SINGLE POINT ENERGY     -2685.678523404962
SMDSOLVENT  "E-1,2-DICHLOROETHENE"  FINAL SINGLE POINT ENERGY     -2685.674747522005
SMDSOLVENT  "TETRACHLOROETHENE"  FINAL SINGLE POINT ENERGY     -2685.678532048845
SMDSOLVENT  "PERFLUOROBENZENE"  FINAL SINGLE POINT ENERGY     -2685.680525456414
SMDSOLVENT  "1-HEXENE"  FINAL SINGLE POINT ENERGY     -2685.679300337366
SMDSOLVENT  "1-PENTENE"  FINAL SINGLE POINT ENERGY     -2685.680875054615
SMDSOLVENT  "N-HEXADECANE"  FINAL SINGLE POINT ENERGY     -2685.671455311791
SMDSOLVENT  "N-BUTYLBENZENE"  FINAL SINGLE POINT ENERGY     -2685.677131750697
SMDSOLVENT  "E-2-PENTENE"  FINAL SINGLE POINT ENERGY     -2685.680644614127
SMDSOLVENT  "BUTANOIC ACID"  FINAL SINGLE POINT ENERGY     -2685.653610298017
SMDSOLVENT  "SEC-BUTYLBENZENE"  FINAL SINGLE POINT ENERGY     -2685.677756096346
SMDSOLVENT  "P-ISOPROPYLTOLUENE"  FINAL SINGLE POINT ENERGY     -2685.678563589297
SMDSOLVENT  "TERT-BUTYLBENZENE"  FINAL SINGLE POINT ENERGY     -2685.678383025975
SMDSOLVENT  "1,2,4-TRIMETHYLBENZENE"  FINAL SINGLE POINT ENERGY     -2685.677952029684
SMDSOLVENT  "CARBON DISULFIDE"  FINAL SINGLE POINT ENERGY     -2685.679494510256
SMDSOLVENT  "MESITYLENE"  FINAL SINGLE POINT ENERGY     -2685.678978986598
SMDSOLVENT  "P-XYLENE"  FINAL SINGLE POINT ENERGY     -2685.679606538408
SMDSOLVENT  "N-PENTADECANE"  FINAL SINGLE POINT ENERGY     -2685.671723203560
SMDSOLVENT  "ISOPROPYLBENZENE"  FINAL SINGLE POINT ENERGY     -2685.679244042512
SMDSOLVENT  "M-XYLENE"  FINAL SINGLE POINT ENERGY     -2685.679624180091
SMDSOLVENT  "TETRALIN"  FINAL SINGLE POINT ENERGY     -2685.676464177936
SMDSOLVENT  "XYLENE"  FINAL SINGLE POINT ENERGY     -2685.679656467904
SMDSOLVENT  "TETRAHYDROTHIOPHENE-S,S-DIOXIDE"  FINAL SINGLE POINT ENERGY     -2685.645542507644
SMDSOLVENT  "ETHYLBENZENE"  FINAL SINGLE POINT ENERGY     -2685.679793606713
SMDSOLVENT  "1-IODOHEXADECANE"  FINAL SINGLE POINT ENERGY     -2685.673748024843
SMDSOLVENT  "CARBON TETRACHLORIDE"  FINAL SINGLE POINT ENERGY     -2685.684729175241
SMDSOLVENT  "O-XYLENE"  FINAL SINGLE POINT ENERGY     -2685.679655650765
SMDSOLVENT  "TOLUENE"  FINAL SINGLE POINT ENERGY     -2685.682140044110
SMDSOLVENT  "DECALIN"  FINAL SINGLE POINT ENERGY     -2685.670747255788
SMDSOLVENT  "BENZENE"  FINAL SINGLE POINT ENERGY     -2685.683994938156
SMDSOLVENT  "THIOPHENE"  FINAL SINGLE POINT ENERGY     -2685.681475595980
SMDSOLVENT  "PROPANOIC ACID"  FINAL SINGLE POINT ENERGY     -2685.654996260947
SMDSOLVENT  "DIBUTYLETHER"  FINAL SINGLE POINT ENERGY     -2685.674677876128
SMDSOLVENT  "1-HEXYNE"  FINAL SINGLE POINT ENERGY     -2685.677049303312
SMDSOLVENT  "TRIETHYLAMINE"  FINAL SINGLE POINT ENERGY     -2685.675212718926
SMDSOLVENT  "1-FLUOROOCTANE"  FINAL SINGLE POINT ENERGY     -2685.680788372579
SMDSOLVENT  "ANISOLE"  FINAL SINGLE POINT ENERGY     -2685.678577162897
SMDSOLVENT  "BROMOFORM"  FINAL SINGLE POINT ENERGY     -2685.672251748074
SMDSOLVENT  "1-BROMOOCTANE"  FINAL SINGLE POINT ENERGY     -2685.679777182607
SMDSOLVENT  "N-DODECANE"  FINAL SINGLE POINT ENERGY     -2685.673007365503
SMDSOLVENT  "IODOBENZENE"  FINAL SINGLE POINT ENERGY     -2685.682950252302
SMDSOLVENT  "ETHYL PHENYL ETHER"  FINAL SINGLE POINT ENERGY     -2685.679791849889
SMDSOLVENT  "TRICHLOROETHENE"  FINAL SINGLE POINT ENERGY     -2685.681293561793
SMDSOLVENT  "1,2-DIBROMOETHANE"  FINAL SINGLE POINT ENERGY     -2685.672211830849
SMDSOLVENT  "O-CHLOROTOLUENE"  FINAL SINGLE POINT ENERGY     -2685.683859792844
SMDSOLVENT  "DIPROPYLAMINE"  FINAL SINGLE POINT ENERGY     -2685.673703285944
SMDSOLVENT  "THIOPHENOL"  FINAL SINGLE POINT ENERGY     -2685.678577233654
SMDSOLVENT  "1-IODOPENTANE"  FINAL SINGLE POINT ENERGY     -2685.682253051404
SMDSOLVENT  "DIISOPROPYL ETHER"  FINAL SINGLE POINT ENERGY     -2685.683394492124
SMDSOLVENT  "METHYL BENZOATE"  FINAL SINGLE POINT ENERGY     -2685.676224510514
SMDSOLVENT  "TRANS-DECALIN"  FINAL SINGLE POINT ENERGY     -2685.671642777336
SMDSOLVENT  "BROMOBENZENE"  FINAL SINGLE POINT ENERGY     -2685.685585392478
SMDSOLVENT  "PENTYL ETHANOATE"  FINAL SINGLE POINT ENERGY     -2685.678651751827
SMDSOLVENT  "1-CHLOROHEXANE"  FINAL SINGLE POINT ENERGY     -2685.682869546451
SMDSOLVENT  "BUTYL ETHANOATE"  FINAL SINGLE POINT ENERGY     -2685.678959147333
SMDSOLVENT  "1-BROMOPENTANE"  FINAL SINGLE POINT ENERGY     -2685.683097680628
SMDSOLVENT  "1-IODOBUTANE"  FINAL SINGLE POINT ENERGY     -2685.683683688844
SMDSOLVENT  "IODOMETHANE"  FINAL SINGLE POINT ENERGY     -2685.683899945473
SMDSOLVENT  "A-CHLOROTOLUENE"  FINAL SINGLE POINT ENERGY     -2685.680742528853
SMDSOLVENT  "CHLOROBENZENE"  FINAL SINGLE POINT ENERGY     -2685.686832195930
SMDSOLVENT  "DIMETHYLSULFOXIDE"  FINAL SINGLE POINT ENERGY     -2685.662959135544
SMDSOLVENT  "HEXANOIC ACID"  FINAL SINGLE POINT ENERGY     -2685.650364042378
SMDSOLVENT  "1-IODOPROPANE"  FINAL SINGLE POINT ENERGY     -2685.683982909852
SMDSOLVENT  "METHYL BUTANOATE"  FINAL SINGLE POINT ENERGY     -2685.679649338871
SMDSOLVENT  "1-CHLOROPENTANE"  FINAL SINGLE POINT ENERGY     -2685.684662955156
SMDSOLVENT  "DIMETHYL DISULFIDE"  FINAL SINGLE POINT ENERGY     -2685.680455324573
SMDSOLVENT  "PROPYL ETHANOATE"  FINAL SINGLE POINT ENERGY     -2685.680371466504
SMDSOLVENT  "O-NITROTOLUENE"  FINAL SINGLE POINT ENERGY     -2685.678254261147
SMDSOLVENT  "IODOETHANE"  FINAL SINGLE POINT ENERGY     -2685.685206690521
SMDSOLVENT  "DIETHYL SULFIDE"  FINAL SINGLE POINT ENERGY     -2685.683532657848
SMDSOLVENT  "O-DICHLOROBENZENE"  FINAL SINGLE POINT ENERGY     -2685.685865018015
SMDSOLVENT  "METHYL PROPANOATE"  FINAL SINGLE POINT ENERGY     -2685.679867153424
SMDSOLVENT  "CYCLOHEXANE"  FINAL SINGLE POINT ENERGY     -2685.673649430374
SMDSOLVENT  "TETRAHYDROFURAN"  FINAL SINGLE POINT ENERGY     -2685.678722048616
SMDSOLVENT  "METHYL ETHANOATE"  FINAL SINGLE POINT ENERGY     -2685.679369927171
SMDSOLVENT  "ETHYL ETHANOATE"  FINAL SINGLE POINT ENERGY     -2685.680731168154
SMDSOLVENT  "DIETHYL ETHER"  FINAL SINGLE POINT ENERGY     -2685.685398074343
SMDSOLVENT  "DIPHENYLETHER"  FINAL SINGLE POINT ENERGY     -2685.693726963217
SMDSOLVENT  "CYCLOHEXANONE"  FINAL SINGLE POINT ENERGY     -2685.674796591816
SMDSOLVENT  "CYCLOPENTANONE"  FINAL SINGLE POINT ENERGY     -2685.676023231798
SMDSOLVENT  "DIETHYLAMINE"  FINAL SINGLE POINT ENERGY     -2685.677924487168
SMDSOLVENT  "1-BROMOPROPANE"  FINAL SINGLE POINT ENERGY     -2685.686242156031
SMDSOLVENT  "FLUOROBENZENE"  FINAL SINGLE POINT ENERGY     -2685.690823963748
