SMDSOLVENT  "DIIODOMETHANE"  FINAL SINGLE POINT ENERGY     -1557.600236756302
SMDSOLVENT  "N-DECANE"  FINAL SINGLE POINT ENERGY     -1557.614501805735
SMDSOLVENT  "NITROMETHANE"  FINAL SINGLE POINT ENERGY     -1557.612072136085
SMDSOLVENT  "1-BROMO-2-METHYLPROPANE"  FINAL SINGLE POINT ENERGY     -1557.622792395550
SMDSOLVENT  "METHYL METHANOATE"  FINAL SINGLE POINT ENERGY     -1557.616738423623
SMDSOLVENT  "DIBROMOMETHANE"  FINAL SINGLE POINT ENERGY     -1557.617781415080
SMDSOLVENT  "ETHANETHIOL"  FINAL SINGLE POINT ENERGY     -1557.620887023355
SMDSOLVENT  "NITROETHANE"  FINAL SINGLE POINT ENERGY     -1557.615459855451
SMDSOLVENT  "NITROBENZENE"  FINAL SINGLE POINT ENERGY     -1557.618656595839
SMDSOLVENT  "1-NITROPROPANE"  FINAL SINGLE POINT ENERGY     -1557.617506385850
SMDSOLVENT  "ACETOPHENONE"  FINAL SINGLE POINT ENERGY     -1557.615361611015
SMDSOLVENT  "ETHYL METHANOATE"  FINAL SINGLE POINT ENERGY     -1557.617784851026
SMDSOLVENT  "N-UNDECANE"  FINAL SINGLE POINT ENERGY     -1557.614837016318
SMDSOLVENT  "2-NITROPROPANE"  FINAL SINGLE POINT ENERGY     -1557.617640685776
SMDSOLVENT  "BENZONITRILE"  FINAL SINGLE POINT ENERGY     -1557.618347870062
SMDSOLVENT  "2-CHLOROBUTANE"  FINAL SINGLE POINT ENERGY     -1557.623573757191
SMDSOLVENT  "1,1,1-TRICHLOROETHANE"  FINAL SINGLE POINT ENERGY     -1557.624970109550
SMDSOLVENT  "1-CHLOROPROPANE"  FINAL SINGLE POINT ENERGY     -1557.623945912427
SMDSOLVENT  "2,6-DIMETHYLPYRIDINE"  FINAL SINGLE POINT ENERGY     -1557.614925274615
SMDSOLVENT  "PENTANAL"  FINAL SINGLE POINT ENERGY     -1557.616928259482
SMDSOLVENT  "BROMOETHANE"  FINAL SINGLE POINT ENERGY     -1557.623856256341
SMDSOLVENT  "2-BROMOPROPANE"  FINAL SINGLE POINT ENERGY     -1557.623569930524
SMDSOLVENT  "2-OCTANONE"  FINAL SINGLE POINT ENERGY     -1557.616289621297
SMDSOLVENT  "CIS-1,2-DIMETHYLCYCLOHEXANE"  FINAL SINGLE POINT ENERGY     -1557.614486146647
SMDSOLVENT  "PENTYLAMINE"  FINAL SINGLE POINT ENERGY     -1557.610254976984
SMDSOLVENT  "1,1,2-TRICHLOROETHANE"  FINAL SINGLE POINT ENERGY     -1557.617317349442
SMDSOLVENT  "4-METHYLPYRIDINE"  FINAL SINGLE POINT ENERGY     -1557.615966660614
SMDSOLVENT  "N,N-DIMETHYLFORMAMIDE"  FINAL SINGLE POINT ENERGY     -1557.610381611298
SMDSOLVENT  "2,4-DIMETHYLPYRIDINE"  FINAL SINGLE POINT ENERGY     -1557.614967978490
SMDSOLVENT  "ACETIC ACID"  FINAL SINGLE POINT ENERGY     -1557.602234801766
SMDSOLVENT  "3-METHYLPYRIDINE"  FINAL SINGLE POINT ENERGY     -1557.616165314470
SMDSOLVENT  "PYRIDINE"  FINAL SINGLE POINT ENERGY     -1557.616454826690
SMDSOLVENT  "5-NONANONE"  FINAL SINGLE POINT ENERGY     -1557.616471411908
SMDSOLVENT  "2-METHYLPYRIDINE"  FINAL SINGLE POINT ENERGY     -1557.615967027486
SMDSOLVENT  "N-NONANE"  FINAL SINGLE POINT ENERGY     -1557.614858870432
SMDSOLVENT  "FORMAMIDE"  FINAL SINGLE POINT ENERGY     -1557.586901663765
SMDSOLVENT  "2-HEPTANONE"  FINAL SINGLE POINT ENERGY     -1557.616498149872
SMDSOLVENT  "BENZALDEHYDE"  FINAL SINGLE POINT ENERGY     -1557.619064248772
SMDSOLVENT  "BUTANONITRILE"  FINAL SINGLE POINT ENERGY     -1557.618425144154
SMDSOLVENT  "CHLOROFORM"  FINAL SINGLE POINT ENERGY     -1557.622193192102
SMDSOLVENT  "BUTANAL"  FINAL SINGLE POINT ENERGY     -1557.618019094220
SMDSOLVENT  "BUTYLAMINE"  FINAL SINGLE POINT ENERGY     -1557.610333216254
SMDSOLVENT  "4-HEPTANONE"  FINAL SINGLE POINT ENERGY     -1557.617278472636
SMDSOLVENT  "2-HEXANONE"  FINAL SINGLE POINT ENERGY     -1557.617102246348
SMDSOLVENT  "PROPANONITRILE"  FINAL SINGLE POINT ENERGY     -1557.617820000109
SMDSOLVENT  "CYCLOPENTANE"  FINAL SINGLE POINT ENERGY     -1557.615213070780
SMDSOLVENT  "N,N-DIMETHYLACETAMIDE"  FINAL SINGLE POINT ENERGY     -1557.610951681673
SMDSOLVENT  "FORMIC ACID"  FINAL SINGLE POINT ENERGY     -1557.597631353094
SMDSOLVENT  "1,2-DICHLOROETHANE"  FINAL SINGLE POINT ENERGY     -1557.618900458173
SMDSOLVENT  "N-METHYLANILINE"  FINAL SINGLE POINT ENERGY     -1557.612764350378
SMDSOLVENT  "4-METHYL-2-PENTANONE"  FINAL SINGLE POINT ENERGY     -1557.618040724537
SMDSOLVENT  "3-PENTANONE"  FINAL SINGLE POINT ENERGY     -1557.617620406979
SMDSOLVENT  "2-PENTANONE"  FINAL SINGLE POINT ENERGY     -1557.618331295169
SMDSOLVENT  "BUTANONE"  FINAL SINGLE POINT ENERGY     -1557.617859187024
SMDSOLVENT  "ACETONITRILE"  FINAL SINGLE POINT ENERGY     -1557.615726721098
SMDSOLVENT  "PROPYLAMINE"  FINAL SINGLE POINT ENERGY     -1557.611374983913
SMDSOLVENT  "N-OCTANE"  FINAL SINGLE POINT ENERGY     -1557.615304701961
SMDSOLVENT  "PROPANAL"  FINAL SINGLE POINT ENERGY     -1557.619127030528
SMDSOLVENT  "Z-1,2-DICHLOROETHENE"  FINAL SINGLE POINT ENERGY     -1557.622046403034
SMDSOLVENT  "DICHLOROMETHANE"  FINAL SINGLE POINT ENERGY     -1557.623396153053
SMDSOLVENT  "ACETONE"  FINAL SINGLE POINT ENERGY     -1557.617281523278
SMDSOLVENT  "O-CRESOL"  FINAL SINGLE POINT ENERGY     -1557.607418838827
SMDSOLVENT  "ANILINE"  FINAL SINGLE POINT ENERGY     -1557.609980367206
SMDSOLVENT  "1,2-ETHANEDIOL"  FINAL SINGLE POINT ENERGY     -1557.590268966512
SMDSOLVENT  "TRIBUTYLPHOSPHATE"  FINAL SINGLE POINT ENERGY     -1557.611338968523
SMDSOLVENT  "WATER"  FINAL SINGLE POINT ENERGY     -1557.578863303014
SMDSOLVENT  "M-CRESOL"  FINAL SINGLE POINT ENERGY     -1557.608724019178
SMDSOLVENT  "1,4-DIOXANE"  FINAL SINGLE POINT ENERGY     -1557.601751397000
SMDSOLVENT  "1-DECANOL"  FINAL SINGLE POINT ENERGY     -1557.607908054991
SMDSOLVENT  "2,2,2-TRIFLUOROETHANOL"  FINAL SINGLE POINT ENERGY     -1557.607178480323
SMDSOLVENT  "1-NONANOL"  FINAL SINGLE POINT ENERGY     -1557.608631736127
SMDSOLVENT  "1-OCTANOL"  FINAL SINGLE POINT ENERGY     -1557.609420834385
SMDSOLVENT  "CYCLOPENTANOL"  FINAL SINGLE POINT ENERGY     -1557.607654814201
SMDSOLVENT  "BENZYL ALCOHOL"  FINAL SINGLE POINT ENERGY     -1557.609597996576
SMDSOLVENT  "2-METHOXYETHANOL"  FINAL SINGLE POINT ENERGY     -1557.604072314454
SMDSOLVENT  "1-HEPTANOL"  FINAL SINGLE POINT ENERGY     -1557.609863589969
SMDSOLVENT  "1-HEXANOL"  FINAL SINGLE POINT ENERGY     -1557.610487826879
SMDSOLVENT  "2-METHYL-2-PROPANOL"  FINAL SINGLE POINT ENERGY     -1557.612970637394
SMDSOLVENT  "METHYLCYCLOHEXANE"  FINAL SINGLE POINT ENERGY     -1557.615149515784
SMDSOLVENT  "1-PENTANOL"  FINAL SINGLE POINT ENERGY     -1557.610929402580
SMDSOLVENT  "N-METHYLFORMAMIDE"  FINAL SINGLE POINT ENERGY     -1557.603261988459
SMDSOLVENT  "2-BUTANOL"  FINAL SINGLE POINT ENERGY     -1557.612204279771
SMDSOLVENT  "1-BUTANOL"  FINAL SINGLE POINT ENERGY     -1557.611125261930
SMDSOLVENT  "2-PROPEN-1-OL"  FINAL SINGLE POINT ENERGY     -1557.611246600678
SMDSOLVENT  "2-METHYL-1-PROPANOL"  FINAL SINGLE POINT ENERGY     -1557.612527268372
SMDSOLVENT  "2-PROPANOL"  FINAL SINGLE POINT ENERGY     -1557.612952919260
SMDSOLVENT  "1-PROPANOL"  FINAL SINGLE POINT ENERGY     -1557.611991825625
SMDSOLVENT  "ETHANOL"  FINAL SINGLE POINT ENERGY     -1557.612414017833
SMDSOLVENT  "METHANOL"  FINAL SINGLE POINT ENERGY     -1557.610685368162
SMDSOLVENT  "N-HEPTANE"  FINAL SINGLE POINT ENERGY     -1557.615808169542
SMDSOLVENT  "PENTANOIC ACID"  FINAL SINGLE POINT ENERGY     -1557.598294400775
SMDSOLVENT  "CIS-DECALIN"  FINAL SINGLE POINT ENERGY     -1557.612466110279
SMDSOLVENT  "N-HEXANE"  FINAL SINGLE POINT ENERGY     -1557.616381520294
SMDSOLVENT  "2,4-DIMETHYLPENTANE"  FINAL SINGLE POINT ENERGY     -1557.616793370594
SMDSOLVENT  "N-PENTANE"  FINAL SINGLE POINT ENERGY     -1557.617128302562
SMDSOLVENT  "2-METHYLPENTANE"  FINAL SINGLE POINT ENERGY     -1557.616984729046
SMDSOLVENT  "2,2,4-TRIMETHYLPENTANE"  FINAL SINGLE POINT ENERGY     -1557.616913961209
SMDSOLVENT  "E-1,2-DICHLOROETHENE"  FINAL SINGLE POINT ENERGY     -1557.614575562326
SMDSOLVENT  "TETRACHLOROETHENE"  FINAL SINGLE POINT ENERGY     -1557.617310987130
SMDSOLVENT  "PERFLUOROBENZENE"  FINAL SINGLE POINT ENERGY     -1557.618150080733
SMDSOLVENT  "1-HEXENE"  FINAL SINGLE POINT ENERGY     -1557.616856172593
SMDSOLVENT  "1-PENTENE"  FINAL SINGLE POINT ENERGY     -1557.617619429092
SMDSOLVENT  "N-HEXADECANE"  FINAL SINGLE POINT ENERGY     -1557.613151575556
SMDSOLVENT  "N-BUTYLBENZENE"  FINAL SINGLE POINT ENERGY     -1557.615197622508
SMDSOLVENT  "E-2-PENTENE"  FINAL SINGLE POINT ENERGY     -1557.617571750434
SMDSOLVENT  "BUTANOIC ACID"  FINAL SINGLE POINT ENERGY     -1557.599314569477
SMDSOLVENT  "SEC-BUTYLBENZENE"  FINAL SINGLE POINT ENERGY     -1557.615430135600
SMDSOLVENT  "P-ISOPROPYLTOLUENE"  FINAL SINGLE POINT ENERGY     -1557.615466111593
SMDSOLVENT  "TERT-BUTYLBENZENE"  FINAL SINGLE POINT ENERGY     -1557.615775196506
SMDSOLVENT  "1,2,4-TRIMETHYLBENZENE"  FINAL SINGLE POINT ENERGY     -1557.615267610789
SMDSOLVENT  "CARBON DISULFIDE"  FINAL SINGLE POINT ENERGY     -1557.617470131510
SMDSOLVENT  "MESITYLENE"  FINAL SINGLE POINT ENERGY     -1557.615729616573
SMDSOLVENT  "P-XYLENE"  FINAL SINGLE POINT ENERGY     -1557.616370683424
SMDSOLVENT  "N-PENTADECANE"  FINAL SINGLE POINT ENERGY     -1557.613290818525
SMDSOLVENT  "ISOPROPYLBENZENE"  FINAL SINGLE POINT ENERGY     -1557.616277124491
SMDSOLVENT  "M-XYLENE"  FINAL SINGLE POINT ENERGY     -1557.616461733123
SMDSOLVENT  "TETRALIN"  FINAL SINGLE POINT ENERGY     -1557.614794367815
SMDSOLVENT  "XYLENE"  FINAL SINGLE POINT ENERGY     -1557.616519484928
SMDSOLVENT  "TETRAHYDROTHIOPHENE-S,S-DIOXIDE"  FINAL SINGLE POINT ENERGY     -1557.593261475241
SMDSOLVENT  "ETHYLBENZENE"  FINAL SINGLE POINT ENERGY     -1557.616736885610
SMDSOLVENT  "1-IODOHEXADECANE"  FINAL SINGLE POINT ENERGY     -1557.614155965792
SMDSOLVENT  "CARBON TETRACHLORIDE"  FINAL SINGLE POINT ENERGY     -1557.620693392454
SMDSOLVENT  "O-XYLENE"  FINAL SINGLE POINT ENERGY     -1557.616665396291
SMDSOLVENT  "TOLUENE"  FINAL SINGLE POINT ENERGY     -1557.618067976778
SMDSOLVENT  "DECALIN"  FINAL SINGLE POINT ENERGY     -1557.612944469930
SMDSOLVENT  "BENZENE"  FINAL SINGLE POINT ENERGY     -1557.618981439491
SMDSOLVENT  "THIOPHENE"  FINAL SINGLE POINT ENERGY     -1557.617910751028
SMDSOLVENT  "PROPANOIC ACID"  FINAL SINGLE POINT ENERGY     -1557.599975361794
SMDSOLVENT  "DIBUTYLETHER"  FINAL SINGLE POINT ENERGY     -1557.611533846957
SMDSOLVENT  "1-HEXYNE"  FINAL SINGLE POINT ENERGY     -1557.615665330578
SMDSOLVENT  "TRIETHYLAMINE"  FINAL SINGLE POINT ENERGY     -1557.608032185921
SMDSOLVENT  "1-FLUOROOCTANE"  FINAL SINGLE POINT ENERGY     -1557.618694542896
SMDSOLVENT  "ANISOLE"  FINAL SINGLE POINT ENERGY     -1557.615747552763
SMDSOLVENT  "BROMOFORM"  FINAL SINGLE POINT ENERGY     -1557.613782138037
SMDSOLVENT  "1-BROMOOCTANE"  FINAL SINGLE POINT ENERGY     -1557.618291463299
SMDSOLVENT  "N-DODECANE"  FINAL SINGLE POINT ENERGY     -1557.613964402917
SMDSOLVENT  "IODOBENZENE"  FINAL SINGLE POINT ENERGY     -1557.619873840972
SMDSOLVENT  "ETHYL PHENYL ETHER"  FINAL SINGLE POINT ENERGY     -1557.616115241091
SMDSOLVENT  "TRICHLOROETHENE"  FINAL SINGLE POINT ENERGY     -1557.619176781661
SMDSOLVENT  "1,2-DIBROMOETHANE"  FINAL SINGLE POINT ENERGY     -1557.613138272190
SMDSOLVENT  "O-CHLOROTOLUENE"  FINAL SINGLE POINT ENERGY     -1557.620901302533
SMDSOLVENT  "DIPROPYLAMINE"  FINAL SINGLE POINT ENERGY     -1557.608424566736
SMDSOLVENT  "THIOPHENOL"  FINAL SINGLE POINT ENERGY     -1557.616638834352
SMDSOLVENT  "1-IODOPENTANE"  FINAL SINGLE POINT ENERGY     -1557.619507257756
SMDSOLVENT  "DIISOPROPYL ETHER"  FINAL SINGLE POINT ENERGY     -1557.616923330425
SMDSOLVENT  "METHYL BENZOATE"  FINAL SINGLE POINT ENERGY     -1557.613373060708
SMDSOLVENT  "TRANS-DECALIN"  FINAL SINGLE POINT ENERGY     -1557.613418450869
SMDSOLVENT  "BROMOBENZENE"  FINAL SINGLE POINT ENERGY     -1557.621844719475
SMDSOLVENT  "PENTYL ETHANOATE"  FINAL SINGLE POINT ENERGY     -1557.614433074701
SMDSOLVENT  "1-CHLOROHEXANE"  FINAL SINGLE POINT ENERGY     -1557.620391200789
SMDSOLVENT  "BUTYL ETHANOATE"  FINAL SINGLE POINT ENERGY     -1557.614674422509
SMDSOLVENT  "1-BROMOPENTANE"  FINAL SINGLE POINT ENERGY     -1557.620374476808
SMDSOLVENT  "1-IODOBUTANE"  FINAL SINGLE POINT ENERGY     -1557.620381063847
SMDSOLVENT  "IODOMETHANE"  FINAL SINGLE POINT ENERGY     -1557.620789304955
SMDSOLVENT  "A-CHLOROTOLUENE"  FINAL SINGLE POINT ENERGY     -1557.617105693645
SMDSOLVENT  "CHLOROBENZENE"  FINAL SINGLE POINT ENERGY     -1557.622794552193
SMDSOLVENT  "DIMETHYLSULFOXIDE"  FINAL SINGLE POINT ENERGY     -1557.602888348623
SMDSOLVENT  "HEXANOIC ACID"  FINAL SINGLE POINT ENERGY     -1557.597637745274
SMDSOLVENT  "1-IODOPROPANE"  FINAL SINGLE POINT ENERGY     -1557.620663054569
SMDSOLVENT  "METHYL BUTANOATE"  FINAL SINGLE POINT ENERGY     -1557.615185041860
SMDSOLVENT  "1-CHLOROPENTANE"  FINAL SINGLE POINT ENERGY     -1557.621473344926
SMDSOLVENT  "DIMETHYL DISULFIDE"  FINAL SINGLE POINT ENERGY     -1557.617720727114
SMDSOLVENT  "PROPYL ETHANOATE"  FINAL SINGLE POINT ENERGY     -1557.615575681784
SMDSOLVENT  "O-NITROTOLUENE"  FINAL SINGLE POINT ENERGY     -1557.617035379764
SMDSOLVENT  "IODOETHANE"  FINAL SINGLE POINT ENERGY     -1557.621416052150
SMDSOLVENT  "DIETHYL SULFIDE"  FINAL SINGLE POINT ENERGY     -1557.618595718290
SMDSOLVENT  "O-DICHLOROBENZENE"  FINAL SINGLE POINT ENERGY     -1557.623031866178
SMDSOLVENT  "METHYL PROPANOATE"  FINAL SINGLE POINT ENERGY     -1557.615404708889
SMDSOLVENT  "CYCLOHEXANE"  FINAL SINGLE POINT ENERGY     -1557.614331257400
SMDSOLVENT  "TETRAHYDROFURAN"  FINAL SINGLE POINT ENERGY     -1557.614671148440
SMDSOLVENT  "METHYL ETHANOATE"  FINAL SINGLE POINT ENERGY     -1557.615254612843
SMDSOLVENT  "ETHYL ETHANOATE"  FINAL SINGLE POINT ENERGY     -1557.615866268693
SMDSOLVENT  "DIETHYL ETHER"  FINAL SINGLE POINT ENERGY     -1557.618396442743
SMDSOLVENT  "DIPHENYLETHER"  FINAL SINGLE POINT ENERGY     -1557.624759902787
SMDSOLVENT  "CYCLOHEXANONE"  FINAL SINGLE POINT ENERGY     -1557.612193647193
SMDSOLVENT  "CYCLOPENTANONE"  FINAL SINGLE POINT ENERGY     -1557.613193103469
SMDSOLVENT  "DIETHYLAMINE"  FINAL SINGLE POINT ENERGY     -1557.611056952057
SMDSOLVENT  "1-BROMOPROPANE"  FINAL SINGLE POINT ENERGY     -1557.622338257786
SMDSOLVENT  "FLUOROBENZENE"  FINAL SINGLE POINT ENERGY     -1557.624662242004
