SMDSOLVENT  "DIIODOMETHANE"  FINAL SINGLE POINT ENERGY     -2726.174993916961
SMDSOLVENT  "N-DECANE"  FINAL SINGLE POINT ENERGY     -2726.171853752229
SMDSOLVENT  "NITROMETHANE"  FINAL SINGLE POINT ENERGY     -2726.206151526665
SMDSOLVENT  "1-BROMO-2-METHYLPROPANE"  FINAL SINGLE POINT ENERGY     -2726.208790995722
SMDSOLVENT  "METHYL METHANOATE"  FINAL SINGLE POINT ENERGY     -2726.205749939801
SMDSOLVENT  "DIBROMOMETHANE"  FINAL SINGLE POINT ENERGY     -2726.204161207716
SMDSOLVENT  "ETHANETHIOL"  FINAL SINGLE POINT ENERGY     -2726.206781936846
SMDSOLVENT  "NITROETHANE"  FINAL SINGLE POINT ENERGY     -2726.208989845191
SMDSOLVENT  "NITROBENZENE"  FINAL SINGLE POINT ENERGY     -2726.212117139427
SMDSOLVENT  "1-NITROPROPANE"  FINAL SINGLE POINT ENERGY     -2726.210272179929
SMDSOLVENT  "ACETOPHENONE"  FINAL SINGLE POINT ENERGY     -2726.208988115223
SMDSOLVENT  "ETHYL METHANOATE"  FINAL SINGLE POINT ENERGY     -2726.206813057467
SMDSOLVENT  "N-UNDECANE"  FINAL SINGLE POINT ENERGY     -2726.172395380823
SMDSOLVENT  "2-NITROPROPANE"  FINAL SINGLE POINT ENERGY     -2726.211057988478
SMDSOLVENT  "BENZONITRILE"  FINAL SINGLE POINT ENERGY     -2726.211903647627
SMDSOLVENT  "2-CHLOROBUTANE"  FINAL SINGLE POINT ENERGY     -2726.210606876382
SMDSOLVENT  "1,1,1-TRICHLOROETHANE"  FINAL SINGLE POINT ENERGY     -2726.210619916077
SMDSOLVENT  "1-CHLOROPROPANE"  FINAL SINGLE POINT ENERGY     -2726.210767873312
SMDSOLVENT  "2,6-DIMETHYLPYRIDINE"  FINAL SINGLE POINT ENERGY     -2726.205696825910
SMDSOLVENT  "PENTANAL"  FINAL SINGLE POINT ENERGY     -2726.208095601919
SMDSOLVENT  "BROMOETHANE"  FINAL SINGLE POINT ENERGY     -2726.211520538362
SMDSOLVENT  "2-BROMOPROPANE"  FINAL SINGLE POINT ENERGY     -2726.211735246323
SMDSOLVENT  "2-OCTANONE"  FINAL SINGLE POINT ENERGY     -2726.207846179270
SMDSOLVENT  "CIS-1,2-DIMETHYLCYCLOHEXANE"  FINAL SINGLE POINT ENERGY     -2726.172826193299
SMDSOLVENT  "PENTYLAMINE"  FINAL SINGLE POINT ENERGY     -2726.197514780411
SMDSOLVENT  "1,1,2-TRICHLOROETHANE"  FINAL SINGLE POINT ENERGY     -2726.205443420341
SMDSOLVENT  "4-METHYLPYRIDINE"  FINAL SINGLE POINT ENERGY     -2726.209250322968
SMDSOLVENT  "N,N-DIMETHYLFORMAMIDE"  FINAL SINGLE POINT ENERGY     -2726.208609530658
SMDSOLVENT  "2,4-DIMETHYLPYRIDINE"  FINAL SINGLE POINT ENERGY     -2726.207925402414
SMDSOLVENT  "ACETIC ACID"  FINAL SINGLE POINT ENERGY     -2726.198479874253
SMDSOLVENT  "3-METHYLPYRIDINE"  FINAL SINGLE POINT ENERGY     -2726.209392635243
SMDSOLVENT  "PYRIDINE"  FINAL SINGLE POINT ENERGY     -2726.210035725403
SMDSOLVENT  "5-NONANONE"  FINAL SINGLE POINT ENERGY     -2726.208853309835
SMDSOLVENT  "2-METHYLPYRIDINE"  FINAL SINGLE POINT ENERGY     -2726.208870663046
SMDSOLVENT  "N-NONANE"  FINAL SINGLE POINT ENERGY     -2726.172040839761
SMDSOLVENT  "FORMAMIDE"  FINAL SINGLE POINT ENERGY     -2726.195926711938
SMDSOLVENT  "2-HEPTANONE"  FINAL SINGLE POINT ENERGY     -2726.209476827529
SMDSOLVENT  "BENZALDEHYDE"  FINAL SINGLE POINT ENERGY     -2726.212948992154
SMDSOLVENT  "BUTANONITRILE"  FINAL SINGLE POINT ENERGY     -2726.212621424814
SMDSOLVENT  "CHLOROFORM"  FINAL SINGLE POINT ENERGY     -2726.205916218616
SMDSOLVENT  "BUTANAL"  FINAL SINGLE POINT ENERGY     -2726.211419463079
SMDSOLVENT  "BUTYLAMINE"  FINAL SINGLE POINT ENERGY     -2726.199347058482
SMDSOLVENT  "4-HEPTANONE"  FINAL SINGLE POINT ENERGY     -2726.210905214761
SMDSOLVENT  "2-HEXANONE"  FINAL SINGLE POINT ENERGY     -2726.211380124114
SMDSOLVENT  "PROPANONITRILE"  FINAL SINGLE POINT ENERGY     -2726.213127117769
SMDSOLVENT  "CYCLOPENTANE"  FINAL SINGLE POINT ENERGY     -2726.172563848032
SMDSOLVENT  "N,N-DIMETHYLACETAMIDE"  FINAL SINGLE POINT ENERGY     -2726.210190484681
SMDSOLVENT  "FORMIC ACID"  FINAL SINGLE POINT ENERGY     -2726.203569827053
SMDSOLVENT  "1,2-DICHLOROETHANE"  FINAL SINGLE POINT ENERGY     -2726.209086004267
SMDSOLVENT  "N-METHYLANILINE"  FINAL SINGLE POINT ENERGY     -2726.203719711744
SMDSOLVENT  "4-METHYL-2-PENTANONE"  FINAL SINGLE POINT ENERGY     -2726.212306735265
SMDSOLVENT  "3-PENTANONE"  FINAL SINGLE POINT ENERGY     -2726.212902554788
SMDSOLVENT  "2-PENTANONE"  FINAL SINGLE POINT ENERGY     -2726.213534480796
SMDSOLVENT  "BUTANONE"  FINAL SINGLE POINT ENERGY     -2726.213595607070
SMDSOLVENT  "ACETONITRILE"  FINAL SINGLE POINT ENERGY     -2726.212215813699
SMDSOLVENT  "PROPYLAMINE"  FINAL SINGLE POINT ENERGY     -2726.202159558211
SMDSOLVENT  "N-OCTANE"  FINAL SINGLE POINT ENERGY     -2726.172416404261
SMDSOLVENT  "PROPANAL"  FINAL SINGLE POINT ENERGY     -2726.214441693723
SMDSOLVENT  "Z-1,2-DICHLOROETHENE"  FINAL SINGLE POINT ENERGY     -2726.212340558369
SMDSOLVENT  "DICHLOROMETHANE"  FINAL SINGLE POINT ENERGY     -2726.213637915080
SMDSOLVENT  "ACETONE"  FINAL SINGLE POINT ENERGY     -2726.214581829033
SMDSOLVENT  "O-CRESOL"  FINAL SINGLE POINT ENERGY     -2726.206728474227
SMDSOLVENT  "ANILINE"  FINAL SINGLE POINT ENERGY     -2726.205930915875
SMDSOLVENT  "1,2-ETHANEDIOL"  FINAL SINGLE POINT ENERGY     -2726.203202513704
SMDSOLVENT  "TRIBUTYLPHOSPHATE"  FINAL SINGLE POINT ENERGY     -2726.212174250730
SMDSOLVENT  "WATER"  FINAL SINGLE POINT ENERGY     -2726.188703115070
SMDSOLVENT  "M-CRESOL"  FINAL SINGLE POINT ENERGY     -2726.215879789014
SMDSOLVENT  "1,4-DIOXANE"  FINAL SINGLE POINT ENERGY     -2726.167608345652
SMDSOLVENT  "1-DECANOL"  FINAL SINGLE POINT ENERGY     -2726.211835249893
SMDSOLVENT  "2,2,2-TRIFLUOROETHANOL"  FINAL SINGLE POINT ENERGY     -2726.217362473657
SMDSOLVENT  "1-NONANOL"  FINAL SINGLE POINT ENERGY     -2726.214655754186
SMDSOLVENT  "1-OCTANOL"  FINAL SINGLE POINT ENERGY     -2726.217416075453
SMDSOLVENT  "CYCLOPENTANOL"  FINAL SINGLE POINT ENERGY     -2726.217617595031
SMDSOLVENT  "BENZYL ALCOHOL"  FINAL SINGLE POINT ENERGY     -2726.218788894254
SMDSOLVENT  "2-METHOXYETHANOL"  FINAL SINGLE POINT ENERGY     -2726.216215295732
SMDSOLVENT  "1-HEPTANOL"  FINAL SINGLE POINT ENERGY     -2726.219482576505
SMDSOLVENT  "1-HEXANOL"  FINAL SINGLE POINT ENERGY     -2726.221321185258
SMDSOLVENT  "2-METHYL-2-PROPANOL"  FINAL SINGLE POINT ENERGY     -2726.223395272872
SMDSOLVENT  "METHYLCYCLOHEXANE"  FINAL SINGLE POINT ENERGY     -2726.173335349959
SMDSOLVENT  "1-PENTANOL"  FINAL SINGLE POINT ENERGY     -2726.223492279603
SMDSOLVENT  "N-METHYLFORMAMIDE"  FINAL SINGLE POINT ENERGY     -2726.222188922058
SMDSOLVENT  "2-BUTANOL"  FINAL SINGLE POINT ENERGY     -2726.224648267828
SMDSOLVENT  "1-BUTANOL"  FINAL SINGLE POINT ENERGY     -2726.224718111914
SMDSOLVENT  "2-PROPEN-1-OL"  FINAL SINGLE POINT ENERGY     -2726.226055111670
SMDSOLVENT  "2-METHYL-1-PROPANOL"  FINAL SINGLE POINT ENERGY     -2726.226573794938
SMDSOLVENT  "2-PROPANOL"  FINAL SINGLE POINT ENERGY     -2726.226912949159
SMDSOLVENT  "1-PROPANOL"  FINAL SINGLE POINT ENERGY     -2726.227002743438
SMDSOLVENT  "ETHANOL"  FINAL SINGLE POINT ENERGY     -2726.228598500937
SMDSOLVENT  "METHANOL"  FINAL SINGLE POINT ENERGY     -2726.230478158734
SMDSOLVENT  "N-HEPTANE"  FINAL SINGLE POINT ENERGY     -2726.172732152360
SMDSOLVENT  "PENTANOIC ACID"  FINAL SINGLE POINT ENERGY     -2726.170940427361
SMDSOLVENT  "CIS-DECALIN"  FINAL SINGLE POINT ENERGY     -2726.171701166112
SMDSOLVENT  "N-HEXANE"  FINAL SINGLE POINT ENERGY     -2726.173141877829
SMDSOLVENT  "2,4-DIMETHYLPENTANE"  FINAL SINGLE POINT ENERGY     -2726.173923724245
SMDSOLVENT  "N-PENTANE"  FINAL SINGLE POINT ENERGY     -2726.173550551107
SMDSOLVENT  "2-METHYLPENTANE"  FINAL SINGLE POINT ENERGY     -2726.174158800285
SMDSOLVENT  "2,2,4-TRIMETHYLPENTANE"  FINAL SINGLE POINT ENERGY     -2726.174718916766
SMDSOLVENT  "E-1,2-DICHLOROETHENE"  FINAL SINGLE POINT ENERGY     -2726.175902235949
SMDSOLVENT  "TETRACHLOROETHENE"  FINAL SINGLE POINT ENERGY     -2726.179401950563
SMDSOLVENT  "PERFLUOROBENZENE"  FINAL SINGLE POINT ENERGY     -2726.177876809832
SMDSOLVENT  "1-HEXENE"  FINAL SINGLE POINT ENERGY     -2726.177807613735
SMDSOLVENT  "1-PENTENE"  FINAL SINGLE POINT ENERGY     -2726.177843891718
SMDSOLVENT  "N-HEXADECANE"  FINAL SINGLE POINT ENERGY     -2726.170602647010
SMDSOLVENT  "N-BUTYLBENZENE"  FINAL SINGLE POINT ENERGY     -2726.180026068181
SMDSOLVENT  "E-2-PENTENE"  FINAL SINGLE POINT ENERGY     -2726.178591649108
SMDSOLVENT  "BUTANOIC ACID"  FINAL SINGLE POINT ENERGY     -2726.176178946604
SMDSOLVENT  "SEC-BUTYLBENZENE"  FINAL SINGLE POINT ENERGY     -2726.180389771137
SMDSOLVENT  "P-ISOPROPYLTOLUENE"  FINAL SINGLE POINT ENERGY     -2726.179756807417
SMDSOLVENT  "TERT-BUTYLBENZENE"  FINAL SINGLE POINT ENERGY     -2726.180893491442
SMDSOLVENT  "1,2,4-TRIMETHYLBENZENE"  FINAL SINGLE POINT ENERGY     -2726.180888836339
SMDSOLVENT  "CARBON DISULFIDE"  FINAL SINGLE POINT ENERGY     -2726.184073092009
SMDSOLVENT  "MESITYLENE"  FINAL SINGLE POINT ENERGY     -2726.180502208738
SMDSOLVENT  "P-XYLENE"  FINAL SINGLE POINT ENERGY     -2726.180965867111
SMDSOLVENT  "N-PENTADECANE"  FINAL SINGLE POINT ENERGY     -2726.170718322764
SMDSOLVENT  "ISOPROPYLBENZENE"  FINAL SINGLE POINT ENERGY     -2726.181906972872
SMDSOLVENT  "M-XYLENE"  FINAL SINGLE POINT ENERGY     -2726.181928589427
SMDSOLVENT  "TETRALIN"  FINAL SINGLE POINT ENERGY     -2726.183748666914
SMDSOLVENT  "XYLENE"  FINAL SINGLE POINT ENERGY     -2726.182421845713
SMDSOLVENT  "TETRAHYDROTHIOPHENE-S,S-DIOXIDE"  FINAL SINGLE POINT ENERGY     -2726.186198355634
SMDSOLVENT  "ETHYLBENZENE"  FINAL SINGLE POINT ENERGY     -2726.183021690602
SMDSOLVENT  "1-IODOHEXADECANE"  FINAL SINGLE POINT ENERGY     -2726.186840347133
SMDSOLVENT  "CARBON TETRACHLORIDE"  FINAL SINGLE POINT ENERGY     -2726.183984780321
SMDSOLVENT  "O-XYLENE"  FINAL SINGLE POINT ENERGY     -2726.184129054620
SMDSOLVENT  "TOLUENE"  FINAL SINGLE POINT ENERGY     -2726.184199133405
SMDSOLVENT  "DECALIN"  FINAL SINGLE POINT ENERGY     -2726.172202912271
SMDSOLVENT  "BENZENE"  FINAL SINGLE POINT ENERGY     -2726.184433537646
SMDSOLVENT  "THIOPHENE"  FINAL SINGLE POINT ENERGY     -2726.187276823747
SMDSOLVENT  "PROPANOIC ACID"  FINAL SINGLE POINT ENERGY     -2726.181589259708
SMDSOLVENT  "DIBUTYLETHER"  FINAL SINGLE POINT ENERGY     -2726.185819018616
SMDSOLVENT  "1-HEXYNE"  FINAL SINGLE POINT ENERGY     -2726.184593086060
SMDSOLVENT  "TRIETHYLAMINE"  FINAL SINGLE POINT ENERGY     -2726.181475756446
SMDSOLVENT  "1-FLUOROOCTANE"  FINAL SINGLE POINT ENERGY     -2726.194312790210
SMDSOLVENT  "ANISOLE"  FINAL SINGLE POINT ENERGY     -2726.194519010103
SMDSOLVENT  "BROMOFORM"  FINAL SINGLE POINT ENERGY     -2726.192306020276
SMDSOLVENT  "1-BROMOOCTANE"  FINAL SINGLE POINT ENERGY     -2726.197624333643
SMDSOLVENT  "N-DODECANE"  FINAL SINGLE POINT ENERGY     -2726.171347860475
SMDSOLVENT  "IODOBENZENE"  FINAL SINGLE POINT ENERGY     -2726.198401047994
SMDSOLVENT  "ETHYL PHENYL ETHER"  FINAL SINGLE POINT ENERGY     -2726.195459681752
SMDSOLVENT  "TRICHLOROETHENE"  FINAL SINGLE POINT ENERGY     -2726.193461169340
SMDSOLVENT  "1,2-DIBROMOETHANE"  FINAL SINGLE POINT ENERGY     -2726.193910844102
SMDSOLVENT  "O-CHLOROTOLUENE"  FINAL SINGLE POINT ENERGY     -2726.199390065934
SMDSOLVENT  "DIPROPYLAMINE"  FINAL SINGLE POINT ENERGY     -2726.186332550422
SMDSOLVENT  "THIOPHENOL"  FINAL SINGLE POINT ENERGY     -2726.196231813826
SMDSOLVENT  "1-IODOPENTANE"  FINAL SINGLE POINT ENERGY     -2726.201389083593
SMDSOLVENT  "DIISOPROPYL ETHER"  FINAL SINGLE POINT ENERGY     -2726.195002483743
SMDSOLVENT  "METHYL BENZOATE"  FINAL SINGLE POINT ENERGY     -2726.199713882113
SMDSOLVENT  "TRANS-DECALIN"  FINAL SINGLE POINT ENERGY     -2726.172695526654
SMDSOLVENT  "BROMOBENZENE"  FINAL SINGLE POINT ENERGY     -2726.203020473527
SMDSOLVENT  "PENTYL ETHANOATE"  FINAL SINGLE POINT ENERGY     -2726.197232932929
SMDSOLVENT  "1-CHLOROHEXANE"  FINAL SINGLE POINT ENERGY     -2726.202362361035
SMDSOLVENT  "BUTYL ETHANOATE"  FINAL SINGLE POINT ENERGY     -2726.198304620568
SMDSOLVENT  "1-BROMOPENTANE"  FINAL SINGLE POINT ENERGY     -2726.203216755205
SMDSOLVENT  "1-IODOBUTANE"  FINAL SINGLE POINT ENERGY     -2726.203534661070
SMDSOLVENT  "IODOMETHANE"  FINAL SINGLE POINT ENERGY     -2726.204771742103
SMDSOLVENT  "A-CHLOROTOLUENE"  FINAL SINGLE POINT ENERGY     -2726.202780469199
SMDSOLVENT  "CHLOROBENZENE"  FINAL SINGLE POINT ENERGY     -2726.204727677552
SMDSOLVENT  "DIMETHYLSULFOXIDE"  FINAL SINGLE POINT ENERGY     -2726.200535153229
SMDSOLVENT  "HEXANOIC ACID"  FINAL SINGLE POINT ENERGY     -2726.168663577522
SMDSOLVENT  "1-IODOPROPANE"  FINAL SINGLE POINT ENERGY     -2726.205126537810
SMDSOLVENT  "METHYL BUTANOATE"  FINAL SINGLE POINT ENERGY     -2726.200358948716
SMDSOLVENT  "1-CHLOROPENTANE"  FINAL SINGLE POINT ENERGY     -2726.204881958162
SMDSOLVENT  "DIMETHYL DISULFIDE"  FINAL SINGLE POINT ENERGY     -2726.205710898173
SMDSOLVENT  "PROPYL ETHANOATE"  FINAL SINGLE POINT ENERGY     -2726.200854633943
SMDSOLVENT  "O-NITROTOLUENE"  FINAL SINGLE POINT ENERGY     -2726.208870409235
SMDSOLVENT  "IODOETHANE"  FINAL SINGLE POINT ENERGY     -2726.207025540515
SMDSOLVENT  "DIETHYL SULFIDE"  FINAL SINGLE POINT ENERGY     -2726.203259991871
SMDSOLVENT  "O-DICHLOROBENZENE"  FINAL SINGLE POINT ENERGY     -2726.209399814358
SMDSOLVENT  "METHYL PROPANOATE"  FINAL SINGLE POINT ENERGY     -2726.201674950491
SMDSOLVENT  "CYCLOHEXANE"  FINAL SINGLE POINT ENERGY     -2726.172025462170
SMDSOLVENT  "TETRAHYDROFURAN"  FINAL SINGLE POINT ENERGY     -2726.203033826651
SMDSOLVENT  "METHYL ETHANOATE"  FINAL SINGLE POINT ENERGY     -2726.202688735815
SMDSOLVENT  "ETHYL ETHANOATE"  FINAL SINGLE POINT ENERGY     -2726.202200115899
SMDSOLVENT  "DIETHYL ETHER"  FINAL SINGLE POINT ENERGY     -2726.200873880230
SMDSOLVENT  "DIPHENYLETHER"  FINAL SINGLE POINT ENERGY     -2726.204106174276
SMDSOLVENT  "CYCLOHEXANONE"  FINAL SINGLE POINT ENERGY     -2726.205454896457
SMDSOLVENT  "CYCLOPENTANONE"  FINAL SINGLE POINT ENERGY     -2726.205572156643
SMDSOLVENT  "DIETHYLAMINE"  FINAL SINGLE POINT ENERGY     -2726.194488558732
SMDSOLVENT  "1-BROMOPROPANE"  FINAL SINGLE POINT ENERGY     -2726.208406362146
SMDSOLVENT  "FLUOROBENZENE"  FINAL SINGLE POINT ENERGY     -2726.207523889192
