SMDSOLVENT  "DIIODOMETHANE"  FINAL SINGLE POINT ENERGY     -2689.324174673463
SMDSOLVENT  "N-DECANE"  FINAL SINGLE POINT ENERGY     -2689.350943005337
SMDSOLVENT  "NITROMETHANE"  FINAL SINGLE POINT ENERGY     -2689.345304221898
SMDSOLVENT  "1-BROMO-2-METHYLPROPANE"  FINAL SINGLE POINT ENERGY     -2689.362493005659
SMDSOLVENT  "METHYL METHANOATE"  FINAL SINGLE POINT ENERGY     -2689.356204633162
SMDSOLVENT  "DIBROMOMETHANE"  FINAL SINGLE POINT ENERGY     -2689.354194849332
SMDSOLVENT  "ETHANETHIOL"  FINAL SINGLE POINT ENERGY     -2689.361803195940
SMDSOLVENT  "NITROETHANE"  FINAL SINGLE POINT ENERGY     -2689.351572919329
SMDSOLVENT  "NITROBENZENE"  FINAL SINGLE POINT ENERGY     -2689.356155784443
SMDSOLVENT  "1-NITROPROPANE"  FINAL SINGLE POINT ENERGY     -2689.354842249465
SMDSOLVENT  "ACETOPHENONE"  FINAL SINGLE POINT ENERGY     -2689.354671203535
SMDSOLVENT  "ETHYL METHANOATE"  FINAL SINGLE POINT ENERGY     -2689.358301271888
SMDSOLVENT  "N-UNDECANE"  FINAL SINGLE POINT ENERGY     -2689.351553832144
SMDSOLVENT  "2-NITROPROPANE"  FINAL SINGLE POINT ENERGY     -2689.355443542249
SMDSOLVENT  "BENZONITRILE"  FINAL SINGLE POINT ENERGY     -2689.356808260149
SMDSOLVENT  "2-CHLOROBUTANE"  FINAL SINGLE POINT ENERGY     -2689.363770320636
SMDSOLVENT  "1,1,1-TRICHLOROETHANE"  FINAL SINGLE POINT ENERGY     -2689.366193419648
SMDSOLVENT  "1-CHLOROPROPANE"  FINAL SINGLE POINT ENERGY     -2689.364062187879
SMDSOLVENT  "2,6-DIMETHYLPYRIDINE"  FINAL SINGLE POINT ENERGY     -2689.358511756256
SMDSOLVENT  "PENTANAL"  FINAL SINGLE POINT ENERGY     -2689.357771950813
SMDSOLVENT  "BROMOETHANE"  FINAL SINGLE POINT ENERGY     -2689.364152616090
SMDSOLVENT  "2-BROMOPROPANE"  FINAL SINGLE POINT ENERGY     -2689.363950711212
SMDSOLVENT  "2-OCTANONE"  FINAL SINGLE POINT ENERGY     -2689.357928304643
SMDSOLVENT  "CIS-1,2-DIMETHYLCYCLOHEXANE"  FINAL SINGLE POINT ENERGY     -2689.350627117470
SMDSOLVENT  "PENTYLAMINE"  FINAL SINGLE POINT ENERGY     -2689.352837107950
SMDSOLVENT  "1,1,2-TRICHLOROETHANE"  FINAL SINGLE POINT ENERGY     -2689.354410535653
SMDSOLVENT  "4-METHYLPYRIDINE"  FINAL SINGLE POINT ENERGY     -2689.357546515005
SMDSOLVENT  "N,N-DIMETHYLFORMAMIDE"  FINAL SINGLE POINT ENERGY     -2689.350084688288
SMDSOLVENT  "2,4-DIMETHYLPYRIDINE"  FINAL SINGLE POINT ENERGY     -2689.357966333138
SMDSOLVENT  "ACETIC ACID"  FINAL SINGLE POINT ENERGY     -2689.335422131096
SMDSOLVENT  "3-METHYLPYRIDINE"  FINAL SINGLE POINT ENERGY     -2689.357962123274
SMDSOLVENT  "PYRIDINE"  FINAL SINGLE POINT ENERGY     -2689.357922885527
SMDSOLVENT  "5-NONANONE"  FINAL SINGLE POINT ENERGY     -2689.358055005976
SMDSOLVENT  "2-METHYLPYRIDINE"  FINAL SINGLE POINT ENERGY     -2689.358694909988
SMDSOLVENT  "N-NONANE"  FINAL SINGLE POINT ENERGY     -2689.351709673498
SMDSOLVENT  "FORMAMIDE"  FINAL SINGLE POINT ENERGY     -2689.309817435304
SMDSOLVENT  "2-HEPTANONE"  FINAL SINGLE POINT ENERGY     -2689.357938618949
SMDSOLVENT  "BENZALDEHYDE"  FINAL SINGLE POINT ENERGY     -2689.359706132309
SMDSOLVENT  "BUTANONITRILE"  FINAL SINGLE POINT ENERGY     -2689.357575481982
SMDSOLVENT  "CHLOROFORM"  FINAL SINGLE POINT ENERGY     -2689.362556791150
SMDSOLVENT  "BUTANAL"  FINAL SINGLE POINT ENERGY     -2689.359321664173
SMDSOLVENT  "BUTYLAMINE"  FINAL SINGLE POINT ENERGY     -2689.352707287301
SMDSOLVENT  "4-HEPTANONE"  FINAL SINGLE POINT ENERGY     -2689.359319801901
SMDSOLVENT  "2-HEXANONE"  FINAL SINGLE POINT ENERGY     -2689.358778330933
SMDSOLVENT  "PROPANONITRILE"  FINAL SINGLE POINT ENERGY     -2689.356587326758
SMDSOLVENT  "CYCLOPENTANE"  FINAL SINGLE POINT ENERGY     -2689.352372313856
SMDSOLVENT  "N,N-DIMETHYLACETAMIDE"  FINAL SINGLE POINT ENERGY     -2689.351974860944
SMDSOLVENT  "FORMIC ACID"  FINAL SINGLE POINT ENERGY     -2689.323785245686
SMDSOLVENT  "1,2-DICHLOROETHANE"  FINAL SINGLE POINT ENERGY     -2689.355863211978
SMDSOLVENT  "N-METHYLANILINE"  FINAL SINGLE POINT ENERGY     -2689.353140962295
SMDSOLVENT  "4-METHYL-2-PENTANONE"  FINAL SINGLE POINT ENERGY     -2689.360669085776
SMDSOLVENT  "3-PENTANONE"  FINAL SINGLE POINT ENERGY     -2689.359531131740
SMDSOLVENT  "2-PENTANONE"  FINAL SINGLE POINT ENERGY     -2689.360983518456
SMDSOLVENT  "BUTANONE"  FINAL SINGLE POINT ENERGY     -2689.359881761448
SMDSOLVENT  "ACETONITRILE"  FINAL SINGLE POINT ENERGY     -2689.352541653295
SMDSOLVENT  "PROPYLAMINE"  FINAL SINGLE POINT ENERGY     -2689.354454948351
SMDSOLVENT  "N-OCTANE"  FINAL SINGLE POINT ENERGY     -2689.352625512586
SMDSOLVENT  "PROPANAL"  FINAL SINGLE POINT ENERGY     -2689.360998989570
SMDSOLVENT  "Z-1,2-DICHLOROETHENE"  FINAL SINGLE POINT ENERGY     -2689.360842025393
SMDSOLVENT  "DICHLOROMETHANE"  FINAL SINGLE POINT ENERGY     -2689.363250680572
SMDSOLVENT  "ACETONE"  FINAL SINGLE POINT ENERGY     -2689.358843824128
SMDSOLVENT  "O-CRESOL"  FINAL SINGLE POINT ENERGY     -2689.343375703223
SMDSOLVENT  "ANILINE"  FINAL SINGLE POINT ENERGY     -2689.348903273151
SMDSOLVENT  "1,2-ETHANEDIOL"  FINAL SINGLE POINT ENERGY     -2689.320338147980
SMDSOLVENT  "TRIBUTYLPHOSPHATE"  FINAL SINGLE POINT ENERGY     -2689.363441952734
SMDSOLVENT  "WATER"  FINAL SINGLE POINT ENERGY     -2689.296497804105
SMDSOLVENT  "M-CRESOL"  FINAL SINGLE POINT ENERGY     -2689.346008354613
SMDSOLVENT  "1,4-DIOXANE"  FINAL SINGLE POINT ENERGY     -2689.339454739844
SMDSOLVENT  "1-DECANOL"  FINAL SINGLE POINT ENERGY     -2689.348365146842
SMDSOLVENT  "2,2,2-TRIFLUOROETHANOL"  FINAL SINGLE POINT ENERGY     -2689.341165616287
SMDSOLVENT  "1-NONANOL"  FINAL SINGLE POINT ENERGY     -2689.349669962724
SMDSOLVENT  "1-OCTANOL"  FINAL SINGLE POINT ENERGY     -2689.351102577382
SMDSOLVENT  "CYCLOPENTANOL"  FINAL SINGLE POINT ENERGY     -2689.348272036463
SMDSOLVENT  "BENZYL ALCOHOL"  FINAL SINGLE POINT ENERGY     -2689.352269242324
SMDSOLVENT  "2-METHOXYETHANOL"  FINAL SINGLE POINT ENERGY     -2689.346870529025
SMDSOLVENT  "1-HEPTANOL"  FINAL SINGLE POINT ENERGY     -2689.351892003026
SMDSOLVENT  "1-HEXANOL"  FINAL SINGLE POINT ENERGY     -2689.353034797414
SMDSOLVENT  "2-METHYL-2-PROPANOL"  FINAL SINGLE POINT ENERGY     -2689.358949187405
SMDSOLVENT  "METHYLCYCLOHEXANE"  FINAL SINGLE POINT ENERGY     -2689.352005051927
SMDSOLVENT  "1-PENTANOL"  FINAL SINGLE POINT ENERGY     -2689.353817763254
SMDSOLVENT  "N-METHYLFORMAMIDE"  FINAL SINGLE POINT ENERGY     -2689.341310033753
SMDSOLVENT  "2-BUTANOL"  FINAL SINGLE POINT ENERGY     -2689.357028887875
SMDSOLVENT  "1-BUTANOL"  FINAL SINGLE POINT ENERGY     -2689.354156521484
SMDSOLVENT  "2-PROPEN-1-OL"  FINAL SINGLE POINT ENERGY     -2689.354560281442
SMDSOLVENT  "2-METHYL-1-PROPANOL"  FINAL SINGLE POINT ENERGY     -2689.356789746227
SMDSOLVENT  "2-PROPANOL"  FINAL SINGLE POINT ENERGY     -2689.358372581607
SMDSOLVENT  "1-PROPANOL"  FINAL SINGLE POINT ENERGY     -2689.355750123575
SMDSOLVENT  "ETHANOL"  FINAL SINGLE POINT ENERGY     -2689.356509531179
SMDSOLVENT  "METHANOL"  FINAL SINGLE POINT ENERGY     -2689.353999400437
SMDSOLVENT  "N-HEPTANE"  FINAL SINGLE POINT ENERGY     -2689.353691180670
SMDSOLVENT  "PENTANOIC ACID"  FINAL SINGLE POINT ENERGY     -2689.328580366492
SMDSOLVENT  "CIS-DECALIN"  FINAL SINGLE POINT ENERGY     -2689.346308833406
SMDSOLVENT  "N-HEXANE"  FINAL SINGLE POINT ENERGY     -2689.354891434333
SMDSOLVENT  "2,4-DIMETHYLPENTANE"  FINAL SINGLE POINT ENERGY     -2689.355612546751
SMDSOLVENT  "N-PENTANE"  FINAL SINGLE POINT ENERGY     -2689.356488632453
SMDSOLVENT  "2-METHYLPENTANE"  FINAL SINGLE POINT ENERGY     -2689.355985735478
SMDSOLVENT  "2,2,4-TRIMETHYLPENTANE"  FINAL SINGLE POINT ENERGY     -2689.355661098638
SMDSOLVENT  "E-1,2-DICHLOROETHENE"  FINAL SINGLE POINT ENERGY     -2689.351738255554
SMDSOLVENT  "TETRACHLOROETHENE"  FINAL SINGLE POINT ENERGY     -2689.355223427202
SMDSOLVENT  "PERFLUOROBENZENE"  FINAL SINGLE POINT ENERGY     -2689.357598794797
SMDSOLVENT  "1-HEXENE"  FINAL SINGLE POINT ENERGY     -2689.356460571350
SMDSOLVENT  "1-PENTENE"  FINAL SINGLE POINT ENERGY     -2689.358201505232
SMDSOLVENT  "N-HEXADECANE"  FINAL SINGLE POINT ENERGY     -2689.348199867642
SMDSOLVENT  "N-BUTYLBENZENE"  FINAL SINGLE POINT ENERGY     -2689.354078194198
SMDSOLVENT  "E-2-PENTENE"  FINAL SINGLE POINT ENERGY     -2689.357878398764
SMDSOLVENT  "BUTANOIC ACID"  FINAL SINGLE POINT ENERGY     -2689.330445036628
SMDSOLVENT  "SEC-BUTYLBENZENE"  FINAL SINGLE POINT ENERGY     -2689.354766550709
SMDSOLVENT  "P-ISOPROPYLTOLUENE"  FINAL SINGLE POINT ENERGY     -2689.355805403015
SMDSOLVENT  "TERT-BUTYLBENZENE"  FINAL SINGLE POINT ENERGY     -2689.355414041364
SMDSOLVENT  "1,2,4-TRIMETHYLBENZENE"  FINAL SINGLE POINT ENERGY     -2689.355025189274
SMDSOLVENT  "CARBON DISULFIDE"  FINAL SINGLE POINT ENERGY     -2689.356048959086
SMDSOLVENT  "MESITYLENE"  FINAL SINGLE POINT ENERGY     -2689.356196176110
SMDSOLVENT  "P-XYLENE"  FINAL SINGLE POINT ENERGY     -2689.356759199885
SMDSOLVENT  "N-PENTADECANE"  FINAL SINGLE POINT ENERGY     -2689.348486623522
SMDSOLVENT  "ISOPROPYLBENZENE"  FINAL SINGLE POINT ENERGY     -2689.356276458484
SMDSOLVENT  "M-XYLENE"  FINAL SINGLE POINT ENERGY     -2689.356693128665
SMDSOLVENT  "TETRALIN"  FINAL SINGLE POINT ENERGY     -2689.353116829256
SMDSOLVENT  "XYLENE"  FINAL SINGLE POINT ENERGY     -2689.356684520063
SMDSOLVENT  "TETRAHYDROTHIOPHENE-S,S-DIOXIDE"  FINAL SINGLE POINT ENERGY     -2689.320816022119
SMDSOLVENT  "ETHYLBENZENE"  FINAL SINGLE POINT ENERGY     -2689.356753795530
SMDSOLVENT  "1-IODOHEXADECANE"  FINAL SINGLE POINT ENERGY     -2689.349737021989
SMDSOLVENT  "CARBON TETRACHLORIDE"  FINAL SINGLE POINT ENERGY     -2689.361681291335
SMDSOLVENT  "O-XYLENE"  FINAL SINGLE POINT ENERGY     -2689.356530799090
SMDSOLVENT  "TOLUENE"  FINAL SINGLE POINT ENERGY     -2689.359213098619
SMDSOLVENT  "DECALIN"  FINAL SINGLE POINT ENERGY     -2689.347263797844
SMDSOLVENT  "BENZENE"  FINAL SINGLE POINT ENERGY     -2689.361241314077
SMDSOLVENT  "THIOPHENE"  FINAL SINGLE POINT ENERGY     -2689.358227015960
SMDSOLVENT  "PROPANOIC ACID"  FINAL SINGLE POINT ENERGY     -2689.331632992879
SMDSOLVENT  "DIBUTYLETHER"  FINAL SINGLE POINT ENERGY     -2689.351786039346
SMDSOLVENT  "1-HEXYNE"  FINAL SINGLE POINT ENERGY     -2689.353837894607
SMDSOLVENT  "TRIETHYLAMINE"  FINAL SINGLE POINT ENERGY     -2689.353789064042
SMDSOLVENT  "1-FLUOROOCTANE"  FINAL SINGLE POINT ENERGY     -2689.356732056002
SMDSOLVENT  "ANISOLE"  FINAL SINGLE POINT ENERGY     -2689.354807792028
SMDSOLVENT  "BROMOFORM"  FINAL SINGLE POINT ENERGY     -2689.347950507143
SMDSOLVENT  "1-BROMOOCTANE"  FINAL SINGLE POINT ENERGY     -2689.355363945697
SMDSOLVENT  "N-DODECANE"  FINAL SINGLE POINT ENERGY     -2689.349853277196
SMDSOLVENT  "IODOBENZENE"  FINAL SINGLE POINT ENERGY     -2689.358754483064
SMDSOLVENT  "ETHYL PHENYL ETHER"  FINAL SINGLE POINT ENERGY     -2689.356160877905
SMDSOLVENT  "TRICHLOROETHENE"  FINAL SINGLE POINT ENERGY     -2689.357423125301
SMDSOLVENT  "1,2-DIBROMOETHANE"  FINAL SINGLE POINT ENERGY     -2689.347904653803
SMDSOLVENT  "O-CHLOROTOLUENE"  FINAL SINGLE POINT ENERGY     -2689.359548156267
SMDSOLVENT  "DIPROPYLAMINE"  FINAL SINGLE POINT ENERGY     -2689.351649555994
SMDSOLVENT  "THIOPHENOL"  FINAL SINGLE POINT ENERGY     -2689.354618220518
SMDSOLVENT  "1-IODOPENTANE"  FINAL SINGLE POINT ENERGY     -2689.357845333153
SMDSOLVENT  "DIISOPROPYL ETHER"  FINAL SINGLE POINT ENERGY     -2689.360496734320
SMDSOLVENT  "METHYL BENZOATE"  FINAL SINGLE POINT ENERGY     -2689.352260309629
SMDSOLVENT  "TRANS-DECALIN"  FINAL SINGLE POINT ENERGY     -2689.348211777649
SMDSOLVENT  "BROMOBENZENE"  FINAL SINGLE POINT ENERGY     -2689.361184865999
SMDSOLVENT  "PENTYL ETHANOATE"  FINAL SINGLE POINT ENERGY     -2689.355166762944
SMDSOLVENT  "1-CHLOROHEXANE"  FINAL SINGLE POINT ENERGY     -2689.358311395470
SMDSOLVENT  "BUTYL ETHANOATE"  FINAL SINGLE POINT ENERGY     -2689.355413943215
SMDSOLVENT  "1-BROMOPENTANE"  FINAL SINGLE POINT ENERGY     -2689.358541130655
SMDSOLVENT  "1-IODOBUTANE"  FINAL SINGLE POINT ENERGY     -2689.359235489107
SMDSOLVENT  "IODOMETHANE"  FINAL SINGLE POINT ENERGY     -2689.359293319386
SMDSOLVENT  "A-CHLOROTOLUENE"  FINAL SINGLE POINT ENERGY     -2689.356583644269
SMDSOLVENT  "CHLOROBENZENE"  FINAL SINGLE POINT ENERGY     -2689.362361720225
SMDSOLVENT  "DIMETHYLSULFOXIDE"  FINAL SINGLE POINT ENERGY     -2689.338818918020
SMDSOLVENT  "HEXANOIC ACID"  FINAL SINGLE POINT ENERGY     -2689.327367850380
SMDSOLVENT  "1-IODOPROPANE"  FINAL SINGLE POINT ENERGY     -2689.359423392970
SMDSOLVENT  "METHYL BUTANOATE"  FINAL SINGLE POINT ENERGY     -2689.355996608848
SMDSOLVENT  "1-CHLOROPENTANE"  FINAL SINGLE POINT ENERGY     -2689.360072763463
SMDSOLVENT  "DIMETHYL DISULFIDE"  FINAL SINGLE POINT ENERGY     -2689.355857639708
SMDSOLVENT  "PROPYL ETHANOATE"  FINAL SINGLE POINT ENERGY     -2689.356752048838
SMDSOLVENT  "O-NITROTOLUENE"  FINAL SINGLE POINT ENERGY     -2689.353108188100
SMDSOLVENT  "IODOETHANE"  FINAL SINGLE POINT ENERGY     -2689.360605655527
SMDSOLVENT  "DIETHYL SULFIDE"  FINAL SINGLE POINT ENERGY     -2689.359623489147
SMDSOLVENT  "O-DICHLOROBENZENE"  FINAL SINGLE POINT ENERGY     -2689.360778920226
SMDSOLVENT  "METHYL PROPANOATE"  FINAL SINGLE POINT ENERGY     -2689.356123668402
SMDSOLVENT  "CYCLOHEXANE"  FINAL SINGLE POINT ENERGY     -2689.350501615239
SMDSOLVENT  "TETRAHYDROFURAN"  FINAL SINGLE POINT ENERGY     -2689.354819754386
SMDSOLVENT  "METHYL ETHANOATE"  FINAL SINGLE POINT ENERGY     -2689.355488622791
SMDSOLVENT  "ETHYL ETHANOATE"  FINAL SINGLE POINT ENERGY     -2689.357033837183
SMDSOLVENT  "DIETHYL ETHER"  FINAL SINGLE POINT ENERGY     -2689.362195829122
SMDSOLVENT  "DIPHENYLETHER"  FINAL SINGLE POINT ENERGY     -2689.370416583016
SMDSOLVENT  "CYCLOHEXANONE"  FINAL SINGLE POINT ENERGY     -2689.350493098438
SMDSOLVENT  "CYCLOPENTANONE"  FINAL SINGLE POINT ENERGY     -2689.351722056276
SMDSOLVENT  "DIETHYLAMINE"  FINAL SINGLE POINT ENERGY     -2689.355636948772
SMDSOLVENT  "1-BROMOPROPANE"  FINAL SINGLE POINT ENERGY     -2689.361560073457
SMDSOLVENT  "FLUOROBENZENE"  FINAL SINGLE POINT ENERGY     -2689.366633750960
